Random_composition
1.0
  11.2085542520000008  0.0037649070000000  0.0057401690000000
  0.0037970790000000  11.2860277660000001  0.0078471230000000
  0.0056407840000000  0.0076709290000000  11.3039271899999996
Cs Rb Zr Te Cl Br I
7 1 1 3 9 11 4
Direct
   0.7555677423360646   0.2460560752084658   0.2541622953589623 Cs
   0.2432234756891637   0.7526271458118110   0.7461183849290568 Cs
   0.2445126556815846   0.7539782719401483   0.2541700638638409 Cs
   0.7565429924183049   0.2471958237174674   0.7460316576343726 Cs
   0.2432921536023420   0.2472598716550004   0.7459658083038402 Cs
   0.7554528218465291   0.7538778483952787   0.2541362619063137 Cs
   0.7567232858748576   0.7527802701537004   0.7459300630085688 Cs
   0.2464601389003036   0.2473827891811196   0.2533034746109473 Rb
   0.0003164285016035   0.0003292592795827   0.0003623165507012 Zr
   0.0003941696182665   0.4996349121761963   0.5025498612388740 Te
   0.4995746374703173   0.0003504551854463   0.4997961781004589 Te
   0.4996677079679973   0.4996912010910721   0.0000035991558295 Te
   0.2215232675978352   0.0004121981696911   0.0005091314142495 Cl
   0.7789708692376883   0.0002414270241944   0.0003252569655789 Cl
   0.0004988442701765   0.2205343118263208   0.0002288210668281 Cl
   0.0002318161735895   0.7799421615235689   0.0000308182506637 Cl
   0.0006038857771415   0.0005749612068400   0.2214462265836898 Cl
   0.0002671336161229   0.0003121303401600   0.7790819835670515 Cl
   0.2295928336957059   0.4992851859962042   0.5017817304312279 Cl
   0.7707771903745368   0.4997633970515493   0.5024841197529284 Cl
   0.0001723806115018   0.4996696690077995   0.7304972778362423 Cl
   0.0012532090506682   0.4987429519549653   0.2605261923205012 Br
   0.0001335891140176   0.7432872468343934   0.5017633669600511 Br
   0.0017882702274775   0.2564263641182927   0.5003568610040735 Br
   0.4984849791659330   0.2428258376586759   0.4985190574073346 Br
   0.4998105023863039   0.7575546505789212   0.4999967076686392 Br
   0.4997250627111286   0.0002515789700212   0.7416643241414386 Br
   0.4987753481919381   0.0010759321076816   0.2580075449191526 Br
   0.7443520038986567   0.0002058712324072   0.4998241392782052 Br
   0.2552873709710367   0.0015838438816637   0.4984482015873024 Br
   0.4988721003503488   0.4989477451429408   0.2429545979327822 Br
   0.4998308511824318   0.4998047285657081   0.7571624191664457 Br
   0.4997584670638924   0.7612376238705870   -0.0000656606606175 I
   0.4978503830431005   0.2384239913492164   0.0020666545250766 I
   0.7636050356021633   0.4997385612923975   -0.0010664198122734 I
   0.2361048326555021   0.4979975311544422   0.0009286038649879 I
