Random_composition
1.0
  11.1957469399999994  0.0063604430000000  0.0072281030000000
  0.0064172210000000  11.2521008689999995  0.0103371220000000
  0.0071105090000000  0.0101077480000000  11.3512059599999997
Cs Rb Zr Te Cl Br I
7 1 1 3 9 11 4
Direct
   0.7576275207847220   0.2443280397241471   0.2540036848639370 Cs
   0.2410447057961466   0.7537741127808212   0.7464075516672807 Cs
   0.2426379962628237   0.7558134518365851   0.2540147066198086 Cs
   0.7585127543627164   0.2458441891570944   0.7461512107307712 Cs
   0.2412233812346696   0.2459979639792283   0.7461412938356220 Cs
   0.7573014840728234   0.7555376881881023   0.2539585724874532 Cs
   0.7587618994072577   0.7540727938326451   0.7460414935834606 Cs
   0.2450598069208626   0.2459644563331011   0.2537101456911313 Rb
   0.0005066296767531   0.0005715161835930   0.0005955693359650 Zr
   0.0007784986812602   0.4993147860316907   0.5020614474932612 Te
   0.4991452199832365   0.0007444352130997   0.4994935737753440 Te
   0.4992668164798342   0.4992945858984540   0.0001383094433457 Te
   0.2221221444486953   0.0003733625872145   0.0006026336576779 Cl
   0.7789387552181433   0.0005063670548083   0.0007826935833846 Cl
   0.0005144164567614   0.2212987515311891   0.0000844570660790 Cl
   0.0004612959102006   0.7796903281782070   0.0002816363012278 Cl
   0.0008774844265512   0.0008159966133608   0.2208941702962141 Cl
   0.0005385608840262   0.0006329767581727   0.7800210475670452 Cl
   0.2293906844277145   0.4993074615106543   0.5028867028292887 Cl
   0.7717641736260339   0.4992669962763207   0.5034390746981249 Cl
   0.0004593174745001   0.4990517470815286   0.7278061864373123 Cl
   0.0017843033359267   0.4984030761396527   0.2608855006158724 Br
   0.0002983115839788   0.7434437629676399   0.5019803882490042 Br
   0.0024831519026284   0.2556860981838192   0.5004515831313181 Br
   0.4981359133479274   0.2438431040786292   0.4980764868788094 Br
   0.4994437404421277   0.7573119641871171   0.4998844671685895 Br
   0.4991978374778735   0.0006517170310560   0.7401940409981665 Br
   0.4985055080071859   0.0013094058892547   0.2587833597333153 Br
   0.7447037300107319   0.0005469316261121   0.4995400110805543 Br
   0.2541755894232997   0.0021000341737683   0.4979877119902162 Br
   0.4987212006610562   0.4988596900385321   0.2422261060195341 Br
   0.4994534507487592   0.4993983049043469   0.7581465430312652 Br
   0.4994099904433950   0.7624384544644446   -0.0000855597347865 I
   0.4977681445772238   0.2365212725673033   0.0022514904073464 I
   0.7639135196314695   0.4993388282043803   -0.0009587855270908 I
   0.2350728923989253   0.4979455468406862   0.0011191361604176 I
