Random_composition
1.0
  11.2082744059999992  0.0037727910000000  0.0057475280000000
  0.0038050220000000  11.2857260050000008  0.0078625010000000
  0.0056477710000000  0.0076857270000000  11.3045024359999999
Cs Rb Zr Te Cl Br I
7 1 1 3 9 11 4
Direct
   0.7555827085857779   0.2460440652628250   0.2541644589652167 Cs
   0.2432071349369767   0.7526354948591267   0.7461172758909727 Cs
   0.2444984341805052   0.7539899561939628   0.2541727517762133 Cs
   0.7565576768107968   0.2471858595283950   0.7460300187688144 Cs
   0.2432761794261799   0.2472502784236834   0.7459636375441848 Cs
   0.7554665254570128   0.7538882778988826   0.2541386057385431 Cs
   0.7567385026927431   0.7527891411810077   0.7459277280562453 Cs
   0.2464499009968725   0.2473738372756553   0.2533069068242598 Rb
   0.0003182192999210   0.0003310383507232   0.0003631799152190 Zr
   0.0003970842273016   0.4996325515034186   0.5025448389678649 Te
   0.4995734163508268   0.0003521201327945   0.4997943033090936 Te
   0.4996664467940814   0.4996891495397087   0.0000043652225053 Te
   0.2214922179433884   0.0004120642567590   0.0005089766181689 Cl
   0.7790045914446632   0.0002435343924422   0.0003273681906913 Cl
   0.0004987070123922   0.2205162847142913   0.0002276371006127 Cl
   0.0002330460417218   0.7799621280800438   0.0000323948401473 Cl
   0.0006046680896100   0.0005755901277217   0.2214190331017298 Cl
   0.0002684234558073   0.0003137547611381   0.7791113355226976 Cl
   0.2296184162173709   0.4992844124846729   0.5017898549401516 Cl
   0.7707556154435532   0.4997613872815568   0.5024918804052897 Cl
   0.0001733659883897   0.4996670148579396   0.7304868496354703 Cl
   0.0012562983297308   0.4987408865752385   0.2605175632756823 Br
   0.0001345368266387   0.7432834223763570   0.5017669014808203 Br
   0.0017922806774651   0.2564272437075422   0.5003593542820255 Br
   0.4984826674835875   0.2428295591909347   0.4985160329845724 Br
   0.4998096431987050   0.7575535228736676   0.4999955634270162 Br
   0.4997228088961436   0.0002538194320006   0.7416492570967759 Br
   0.4987733582278595   0.0010770386459122   0.2580197434123053 Br
   0.7443435111395107   0.0002073632154287   0.4998229923363094 Br
   0.2552925412370936   0.0015865986194691   0.4984456641270449 Br
   0.4988706794742243   0.4989471435593847   0.2429323864481283 Br
   0.4998291107031553   0.4998025580454218   0.7571856938010733 Br
   0.4997570298140345   0.7612168703668536   -0.0000661184276584 I
   0.4978492537449607   0.2384397618156578   0.0020685443469090 I
   0.7635693244428302   0.4997363402155784   -0.0010666381483946 I
   0.2361371395847582   0.4979964914011380   0.0009303635720636 I
