Random_composition
1.0
  11.1846856569999993  0.0064510600000000  0.0063568080000000
  0.0065170540000000  11.2266504519999994  0.0098831460000000
  0.0062025920000000  0.0096017250000000  11.3749551049999997
Cs Rb Zr Te Cl Br I
7 1 1 3 9 11 4
Direct
   0.7582134732869730   0.2437017694695497   0.2535105954916361 Cs
   0.2404647994812839   0.7540367687980366   0.7468986978444465 Cs
   0.2423149728118868   0.7566159569349844   0.2534895195328326 Cs
   0.7589672526906502   0.2454994627353425   0.7464494589636644 Cs
   0.2407923346966432   0.2457773773292992   0.7467335209018233 Cs
   0.7576163528632145   0.7561355852732897   0.2533566904941325 Cs
   0.7591392248430574   0.7543786408149764   0.7464740374864053 Cs
   0.2446753916713370   0.2451455509457555   0.2539308339750650 Rb
   0.0009074567474413   0.0008913671765006   0.0007371828620279 Zr
   0.0011949316204177   0.4989558375781394   0.5019423020095320 Te
   0.4987521792269538   0.0011106795629455   0.4992132715014169 Te
   0.4990248709480506   0.4990596969465493   0.0002070790467986 Te
   0.2223434596344017   0.0005030780841813   0.0008089379903441 Cl
   0.7789390209559529   0.0006576515236735   0.0012283067849567 Cl
   0.0006905354382237   0.2219143647262227   0.0000564748015958 Cl
   0.0005433683154754   0.7794035814969988   0.0005128447953630 Cl
   0.0014271992581704   0.0013621664067664   0.2206089995006502 Cl
   0.0006225355289362   0.0007455519648525   0.7806860415966671 Cl
   0.2303699186338267   0.4993290707196387   0.5031317124086621 Cl
   0.7714680356230285   0.4986678144869734   0.5034479227514570 Cl
   0.0007229347569295   0.4984197692241018   0.7280784295538567 Cl
   0.0023507274841538   0.4980625386673186   0.2614957689619772 Br
   0.0002753054022998   0.7441197059226771   0.5016172770416667 Br
   0.0031159496356003   0.2544882085105249   0.4998828563188813 Br
   0.4978241945672297   0.2449511135936905   0.4976164290152486 Br
   0.4990750832844706   0.7568430228326634   0.4997406524202928 Br
   0.4986412006972050   0.0010609511724107   0.7396908093635015 Br
   0.4981959497138887   0.0015224097193014   0.2587604074595390 Br
   0.7447109229459904   0.0007892989302928   0.4993521435872748 Br
   0.2535294594133114   0.0025472549776202   0.4975486175346380 Br
   0.4984977475983480   0.4987349999360331   0.2416908066302568 Br
   0.4990754046609584   0.4989853928879622   0.7588061533703319 Br
   0.4992237977529275   0.7626871596613377   -0.0002779104052213 I
   0.4976570703727839   0.2359525954983602   0.0023195287682332 I
   0.7640226426445100   0.4991239745038555   -0.0009529409355032 I
   0.2346161787232687   0.4978185542382105   0.0012060334672519 I
