Random_composition
1.0
  11.1893734580000004  0.0072127400000000  0.0072619470000000
  0.0072798670000000  11.2349233630000001  0.0107518520000000
  0.0071288910000000  0.0104934980000000  11.3697400230000003
Cs Rb Zr Te Cl Br I
7 1 1 3 9 11 4
Direct
   0.7583039778650673   0.2437246085072903   0.2538002399303784 Cs
   0.2403688758216524   0.7541467822169851   0.7466508435726490 Cs
   0.2420880382186105   0.7564965351569110   0.2538033609277895 Cs
   0.7591017844950931   0.2453922931583113   0.7462896252940482 Cs
   0.2406176867285663   0.2456058004168363   0.7463804724407541 Cs
   0.7578428666791137   0.7561138784928977   0.2537188145828853 Cs
   0.7593407868533030   0.7544958104974890   0.7462205347702562 Cs
   0.2446038531912897   0.2453841222107761   0.2538646759009512 Rb
   0.0007506959832081   0.0007599286916381   0.0006522908905332 Zr
   0.0010278729541186   0.4990946112029301   0.5015370916759820 Te
   0.4989084872222144   0.0009632359417040   0.4993207043391740 Te
   0.4991016892586536   0.4991363288984625   0.0001626167392670 Te
   0.2221430967524944   0.0004085872292202   0.0006950392462417 Cl
   0.7790336383306591   0.0006088477794490   0.0010172750425791 Cl
   0.0005760922956646   0.2216504126348568   0.0000424516316922 Cl
   0.0005337572881861   0.7795141720361622   0.0003970981626751 Cl
   0.0011081436816196   0.0010375310786401   0.2206533124120416 Cl
   0.0006274269600671   0.0007436935948331   0.7804960737557582 Cl
   0.2300314234031490   0.4993234038495341   0.5032323396209800 Cl
   0.7714950982138434   0.4989789243716945   0.5036863186278018 Cl
   0.0006006358197697   0.4987144020992414   0.7278392925460535 Cl
   0.0020772234185165   0.4982247531984188   0.2609327979798172 Br
   0.0003293336911212   0.7440932672150899   0.5019100890758245 Br
   0.0028356100335911   0.2547742933295327   0.5002990482586287 Br
   0.4979627820609868   0.2444328443603863   0.4978368637675049 Br
   0.4992500553739860   0.7570914293385785   0.4998191978060685 Br
   0.4989037237782858   0.0008650652698164   0.7397528588632415 Br
   0.4983544276858885   0.0014284519276465   0.2589175840520637 Br
   0.7447275459245701   0.0007003053413643   0.4994137321492096 Br
   0.2537947658586716   0.0023601684558759   0.4977494268322132 Br
   0.4986164096301536   0.4987952582645142   0.2417791520038148 Br
   0.4992475446774314   0.4991771862491106   0.7587198470775750 Br
   0.4992700804373861   0.7626042612531827   -0.0001464484685681 I
   0.4977182007590422   0.2360884663843296   0.0023120325093190 I
   0.7641029031575176   0.4991755055821525   -0.0009363394344800 I
   0.2346053574407438   0.4978952917461985   0.0011823499757077 I
