Random_composition
1.0
  11.2131265829999993  0.0047451660000000  0.0064865980000000
  0.0047871020000000  11.2814850209999999  0.0090464210000000
  0.0063825720000000  0.0088508340000000  11.3304433279999994
Cs Rb Zr Te Cl Br I
7 1 1 3 9 11 4
Direct
   0.7564860167266048   0.2453339209710362   0.2541448292906716 Cs
   0.2422715886416576   0.7531398486462545   0.7461963328973574 Cs
   0.2436630675378413   0.7547432186361683   0.2541526088052075 Cs
   0.7574121003881071   0.2466078535336748   0.7460481297170543 Cs
   0.2423746556409921   0.2466986619438171   0.7459898812784909 Cs
   0.7562909262576326   0.7545719506059571   0.2541134522190469 Cs
   0.7576274653955773   0.7533452169059015   0.7459355519056838 Cs
   0.2458271238240351   0.2468017253153282   0.2534837042838373 Rb
   0.0005355432598483   0.0004860982965420   0.0004008782855918 Zr
   0.0005847381899608   0.4994587617848682   0.5017251071508277 Te
   0.4993574488665859   0.0005387614866155   0.4996632374584232 Te
   0.4995117794508537   0.4995273107286997   -0.0000158040120963 Te
   0.2214096795746190   0.0003806804003721   0.0005348740949214 Cl
   0.7791863433404325   0.0003526288320210   0.0005032937573323 Cl
   0.0004854924708026   0.2204050522638064   0.0001582439327660 Cl
   0.0003285602435060   0.7802241739974168   0.0001252936331199 Cl
   0.0006846759089837   0.0006454910903952   0.2208439376078810 Cl
   0.0003763572472852   0.0004436911387118   0.7798947745555502 Cl
   0.2296178189928101   0.4992963594217721   0.5023284219054576 Cl
   0.7710265361064876   0.4995831277111692   0.5029784851782256 Cl
   0.0002812786881203   0.4994407492923496   0.7293474566660461 Cl
   0.0014525352042977   0.4986128456058473   0.2609650682390925 Br
   0.0002031971836300   0.7432050259708023   0.5019490563385753 Br
   0.0020599572264266   0.2563173602320685   0.5004912622546333 Br
   0.4983483727822238   0.2435454606539662   0.4983471552007478 Br
   0.4996746067802725   0.7571125532217221   0.4999565761734491 Br
   0.4995303527015879   0.0004041217759705   0.7412354352281093 Br
   0.4986750653003891   0.0011663968649188   0.2581694871879315 Br
   0.7448287383775720   0.0003388552600597   0.4997126207741584 Br
   0.2545473117964865   0.0017845210068645   0.4982675917399094 Br
   0.4988164169278054   0.4989169063818957   0.2428502474610710 Br
   0.4996870223870364   0.4996500983328364   0.7574203795547856 Br
   0.4996147081138013   0.7619289285798130   -0.0000620919769922 I
   0.4978156243925378   0.2374384856946302   0.0021537464119295 I
   0.7635947863762180   0.4995748022174639   -0.0010204804932386 I
   0.2358119875986822   0.4979798381183936   0.0010110325638739 I
