Random_composition
1.0
  11.2100552520000001  0.0040867050000000  0.0059852060000000
  0.0041220830000000  11.2845364789999998  0.0082408270000000
  0.0058842980000000  0.0080582660000000  11.3126318789999996
Cs Rb Zr Te Cl Br I
7 1 1 3 9 11 4
Direct
   0.7558688151077174   0.2458189515087218   0.2541566143699229 Cs
   0.2429110580536138   0.7527951797662058   0.7461440063389677 Cs
   0.2442338920603813   0.7542289199437775   0.2541647929986694 Cs
   0.7568278422007317   0.2470030830681212   0.7460372449181030 Cs
   0.2429909521770496   0.2470757851440209   0.7459740253688691 Cs
   0.7557283126611006   0.7541057388450150   0.2541294003185836 Cs
   0.7570200803913456   0.7529653858324563   0.7459319910387661 Cs
   0.2462521485001578   0.2471924284351374   0.2533627091185966 Rb
   0.0003885996142386   0.0003806437621644   0.0003752033458937 Zr
   0.0004562995225689   0.4995766238040522   0.5022792578419537 Te
   0.4995031230331357   0.0004122046900397   0.4997525805200351 Te
   0.4996166696991139   0.4996375572386222   -0.0000033356836405 Te
   0.2214855540046468   0.0004023812624007   0.0005172136282228 Cl
   0.7790422433669154   0.0002785394988231   0.0003840818247600 Cl
   0.0004950830431420   0.2204916727219319   0.0002050807558287 Cl
   0.0002635373763542   0.7800345579586190   0.0000619036167574 Cl
   0.0006302952879294   0.0005976803750783   0.2212483645665607 Cl
   0.0003026403966916   0.0003552262736948   0.7793487276504539 Cl
   0.2296008490306675   0.4992882750132981   0.5019611089674407 Cl
   0.7708590422020595   0.4997041106056695   0.5026468054055883 Cl
   0.0002082406188789   0.4995947918077869   0.7301193716662978 Cl
   0.0013184998224221   0.4987005070979108   0.2606698808415408 Br
   0.0001564074633083   0.7432600836045828   0.5018243364430900 Br
   0.0018776563185163   0.2563906787098536   0.5004004329992284 Br
   0.4984404491075204   0.2430623784992418   0.4984625820530457 Br
   0.4997661225421181   0.7574089215533032   0.4999833090488550 Br
   0.4996617134112540   0.0003015312375939   0.7415230183897471 Br
   0.4987421392894008   0.0011052528547909   0.2580607102381878 Br
   0.7445082015559960   0.0002490128028411   0.4997874918452094 Br
   0.2550442855548701   0.0016492976138354   0.4983888785687167 Br
   0.4988542694813543   0.4989379783252763   0.2429198282294841 Br
   0.4997838080602268   0.4997542824273446   0.7572473314783181 Br
   0.4997113251500704   0.7614640058515533   -0.0000650572181945 I
   0.4978393129858116   0.2381000408646163   0.0020948430183974 I
   0.7636016282056262   0.4996844898420366   -0.0010508718580498 I
   0.2360087931643227   0.4979919032889147   0.0009558848682038 I
