Random_composition
1.0
  11.2179353689999992  0.0035005930000000  0.0054934840000000
  0.0035308060000000  11.2961435100000003  0.0073316190000000
  0.0054065820000000  0.0071748370000000  11.2846435439999997
Cs Rb Zr Te Cl Br I
7 1 1 3 9 11 4
Direct
   0.7550619467786183   0.2464401936137380   0.2540882450110735 Cs
   0.2437685122570742   0.7523472997047209   0.7461631291223264 Cs
   0.2449912024628411   0.7535801307411460   0.2540939083422913 Cs
   0.7560368255405725   0.2475110454680336   0.7460981850497538 Cs
   0.2438240458061443   0.2475626983726118   0.7460382322487005 Cs
   0.7549781331546505   0.7535053229243618   0.2540636852714230 Cs
   0.7561943923893560   0.7524736556327788   0.7460057533257147 Cs
   0.2468142845427553   0.2476844908056537   0.2531695565055854 Rb
   0.0002636271025367   0.0002714939784083   0.0003125097628976 Zr
   0.0003055508996008   0.4996946040907163   0.5027252060632278 Te
   0.4996379723201569   0.0002854591739948   0.4998556783758135 Te
   0.4997181247726722   0.4997449666206296   -0.0000238495096748 Te
   0.2225468142620024   0.0004282310276338   0.0005010617294038 Cl
   0.7778604260151719   0.0001872524717018   0.0002503812655363 Cl
   0.0005061389732534   0.2211317852303871   0.0002575150490327 Cl
   0.0001817298632854   0.7792641304009760   -0.0000118981192484 Cl
   0.0005745940018573   0.0005517349985718   0.2223759030209246 Cl
   0.0002132601403601   0.0002502290728596   0.7780845677259443 Cl
   0.2287547173511247   0.4992952657684606   0.5015092124883507 Cl
   0.7715082682362842   0.4998348255830157   0.5022194197867941 Cl
   0.0001278292315987   0.4997613335363831   0.7308609444264553 Cl
   0.0011640921350696   0.4988122419261028   0.2608081054835793 Br
   0.0001027859902927   0.7434024245774423   0.5016373862350267 Br
   0.0016544891919466   0.2563976672308448   0.5002711055133946 Br
   0.4985692269061776   0.2426843532556993   0.4986078493994978 Br
   0.4998666539647347   0.7575720577163869   0.5000095695394957 Br
   0.4998038018064852   0.0001872723060962   0.7421681447133924 Br
   0.4988345383169497   0.0010256156956240   0.2576060227057171 Br
   0.7446322879411309   0.0001502156398961   0.4998703105793443 Br
   0.2551333450839510   0.0014774887674228   0.4985418967582230 Br
   0.4989171711798523   0.4989795795977334   0.2437064908265221 Br
   0.4998866024290168   0.4998655633925166   0.7563880085183601 Br
   0.4998201552130117   0.7619131971728216   -0.0000675086718790 I
   0.4979052819492665   0.2378787654892829   0.0020019000808714 I
   0.7648173008606285   0.4998068889407757   -0.0010674599726187 I
   0.2350233502430583   0.4980408539990848   0.0008806177314428 I
