Random_composition
1.0
  11.1902467280000000  0.0072690210000000  0.0073687810000000
  0.0073362510000000  11.2360631360000003  0.0108457020000000
  0.0072384670000000  0.0105902040000000  11.3690092570000001
Cs Rb Zr Te Cl Br I
7 1 1 3 9 11 4
Direct
   0.7583009201435367   0.2437472658765336   0.2538408203512955 Cs
   0.2403756646561906   0.7541543518450325   0.7466138164837018 Cs
   0.2420735670100808   0.7564644300212133   0.2538446191641802 Cs
   0.7591028294944050   0.2453892383660921   0.7462642282321831 Cs
   0.2406118491919618   0.2455919942641968   0.7463344584023084 Cs
   0.7578569458203502   0.7560934422317606   0.2537692677312173 Cs
   0.7593472951507710   0.7544998604099442   0.7461821222645914 Cs
   0.2446024697263257   0.2454261419086350   0.2538528814543278 Rb
   0.0008230084975534   0.0007847343168275   0.0006320185227791 Zr
   0.0010150927897097   0.4991092312858937   0.5013866381106037 Te
   0.4989299035125191   0.0009420812098936   0.4993278788808539 Te
   0.4991111569889968   0.4991481647906643   0.0001564381644979 Te
   0.2221266651200096   0.0003958838365446   0.0006780629198280 Cl
   0.7789469384738776   0.0006005070963271   0.0009898485808533 Cl
   0.0005588599631242   0.2216297190853312   0.0000397705715210 Cl
   0.0005298205840198   0.7794733794215538   0.0003819294874208 Cl
   0.0010629822376894   0.0009936576345269   0.2207203225432372 Cl
   0.0006233587891121   0.0007405338341338   0.7804178160496605 Cl
   0.2299220161065944   0.4993233943860680   0.5032487979334128 Cl
   0.7715498253362876   0.4990206121682061   0.5037186847155608 Cl
   0.0005828796677793   0.4987563475641574   0.7278379456922532 Cl
   0.0020389297520689   0.4982485421325041   0.2609111359933937 Br
   0.0003340440748281   0.7440516861870664   0.5019591106522913 Br
   0.0027942595636832   0.2548544534461203   0.5003642099029183 Br
   0.4979831105160401   0.2443104483199043   0.4978684268124653 Br
   0.4992738159612604   0.7571724506162573   0.4998306154364629 Br
   0.4989424613161902   0.0008382961216491   0.7397429380385839 Br
   0.4983764210163596   0.0014137329653114   0.2589655944346037 Br
   0.7447136862825836   0.0006868642696094   0.4994247774859472 Br
   0.2538505018198235   0.0023311709029592   0.4977781282547534 Br
   0.4986342545615763   0.4988059058317157   0.2418052189970652 Br
   0.4992728134446758   0.4992038610036258   0.7586893947116765 Br
   0.4992790966738047   0.7626053720709498   -0.0001301845127302 I
   0.4977272920806749   0.2360993814617215   0.0023090572326742 I
   0.7641283353500397   0.4991860008952376   -0.0009336536480375 I
   0.2345961403611494   0.4979067984531680   0.0011796246581626 I
