Random_composition
1.0
  11.0127856780000002  0.0016197360000000  0.0045461240000000
  0.0016319810000000  11.1114661150000007  0.0059702450000000
  0.0044916510000000  0.0058773570000000  11.0007253489999997
Cs Rb Zr Te Cl Br I
7 1 1 3 9 11 4
Direct
   0.7521612197191476   0.2484080351024981   0.2525340317900191 Cs
   0.2471043091832110   0.7508735549458511   0.7475628627370499 Cs
   0.2478373055331726   0.7515852764426234   0.2525348160692876 Cs
   0.7528536350825205   0.2490964656395015   0.7475534572672625 Cs
   0.2471160230833772   0.2491090003897281   0.7475333741424767 Cs
   0.7521538546706728   0.7515783661520578   0.2525218492596475 Cs
   0.7528936947965792   0.7509060400846794   0.7475283581751162 Cs
   0.2487774171685973   0.2490757671242957   0.2518308471278839 Rb
   0.0001052652085276   0.0001115157522484   0.0001235241888000 Zr
   0.0001299754064827   0.4998988309977003   0.5037754070574256 Te
   0.4998820884983197   0.0000991792532657   0.4999349322375185 Te
   0.4999193254335577   0.4999304818164683   -0.0000588509104891 Te
   0.2238096599722804   0.0003361707660204   0.0003636602482669 Cl
   0.7762922123547923   0.0000254106319704   0.0000446086616231 Cl
   0.0003673210383740   0.2228173932979244   0.0002534428954737 Cl
   0.0000246885118192   0.7772755078872106   -0.0000864158881767 Cl
   0.0003710084337588   0.0003683713200621   0.2256547668748296 Cl
   0.0000364237174957   0.0000430098482418   0.7745043446983646 Cl
   0.2354370128652874   0.4995810588620870   0.5003349213992415 Cl
   0.7645535844852083   0.4999815844547882   0.5007678182372193 Cl
   0.0000145994442530   0.4999674553159159   0.7398798485745973 Cl
   0.0006184988871806   0.4993510700366868   0.2546219318395087 Br
   0.0000118370434308   0.7480891682821728   0.5006564109039863 Br
   0.0008184688993706   0.2518894137068834   0.4998827134727111 Br
   0.4992570822448322   0.2489020721638908   0.4992711057497388 Br
   0.4999841541427608   0.7511152304031696   0.5000081806958758 Br
   0.4999742287261703   0.0000260348559828   0.7504884121550609 Br
   0.4993621558732276   0.0005764110955284   0.2494986747989786 Br
   0.7504971485912227   0.0000203263585719   0.4999759425906850 Br
   0.2494806011458136   0.0007561328099271   0.4992317453369292 Br
   0.4994138359352711   0.4994311939304597   0.2532249272489418 Br
   0.4999860485803398   0.4999826541016497   0.7469063831532756 Br
   0.4999620606505713   0.7690497572681342   -0.0000212990492591 I
   0.4988209205449584   0.2309105856221515   0.0011729867861235 I
   0.7712214615898756   0.4999632060985212   -0.0005782319824775 I
   0.2287516861470144   0.4988699128011436   0.0005701161212597 I
