Random_composition
1.0
  10.9270100209999992  0.0010731480000000  0.0040334920000000
  0.0010779270000000  11.0422834870000006  0.0053835290000000
  0.0040058000000000  0.0053396830000000  10.8519441239999992
Cs Rb Zr Te Cl Br I
7 1 1 3 9 11 4
Direct
   0.7514958041673840   0.2488115551925828   0.2520386515273347 Cs
   0.2478651071882323   0.7505711848662623   0.7480226053118210 Cs
   0.2484989629757728   0.7511822640722706   0.2520399698583917 Cs
   0.7521183481983309   0.2494165883448408   0.7480202166974459 Cs
   0.2478687908877381   0.2494212238560764   0.7480104361089374 Cs
   0.7514956674253023   0.7511813810013021   0.2520327058669368 Cs
   0.7521366355824833   0.7505864826751177   0.7480074875108140 Cs
   0.2492094352800327   0.2493297623122452   0.2514464238436124 Rb
   0.0001280846039899   0.0001213045585666   0.0000717687371282 Zr
   0.0001007173318861   0.4999506242623321   0.5044062181418180 Te
   0.4999352246495573   0.0000691794869122   0.4999540249052875 Te
   0.4999584597492325   0.4999612177755771   -0.0000053570274447 Te
   0.2256269969861968   0.0002813019913017   0.0003094764290038 Cl
   0.7743755972009421   0.0000053312262088   0.0000208749252941 Cl
   0.0002997993885497   0.2255854460668639   0.0002307738541657 Cl
   0.0000050809541238   0.7744231881852213   -0.0000727197059659 Cl
   0.0003066706947031   0.0003059526746051   0.2268401945138057 Cl
   0.0000093733196096   0.0000127668080680   0.7732697291450142 Cl
   0.2385884333776750   0.4996732553251984   0.5000714699590459 Cl
   0.7613808799738923   0.4999944901168195   0.5004086990702873 Cl
   0.0000008564334573   0.4999897692979853   0.7418466401166354 Cl
   0.0004821494630692   0.4994935149456337   0.2529158818060070 Br
   0.0000007092252699   0.7494172852738741   0.5003827356097225 Br
   0.0006001487688585   0.2505668883305109   0.4997941920102514 Br
   0.4994467072873469   0.2505982677338804   0.4994502663051157 Br
   0.4999958171804135   0.7494014807022285   0.4999987821783376 Br
   0.4999921432122487   0.0000063419193489   0.7516186185947583 Br
   0.4995048556074964   0.0004535025005019   0.2483769524537116 Br
   0.7515136474659442   0.0000066796342703   0.4999840284613550 Br
   0.2484722559308828   0.0005647952498694   0.4994160204498188 Br
   0.4995486053339055   0.4995593295640477   0.2543549479262732 Br
   0.4999934728174183   0.4999927170376234   0.7457577612418030 Br
   0.4999803458408622   0.7697894635616835   -0.0000065288417702 I
   0.4991034342379601   0.2301679268860055   0.0009157579939607 I
   0.7712469104118587   0.4999812366581418   -0.0004149009319186 I
   0.2287149028806724   0.4991270123764169   0.0004847440664115 I
