Random_composition
1.0
  11.1941545290000004  0.0069521580000000  0.0074305320000000
  0.0070149550000000  11.2450139860000000  0.0107494960000000
  0.0073069500000000  0.0105061320000000  11.3637416550000001
Cs Rb Zr Te Cl Br I
7 1 1 3 9 11 4
Direct
   0.7580351869804476   0.2439758755605388   0.2539361475467810 Cs
   0.2406243392476390   0.7540047795997845   0.7465020870174783 Cs
   0.2422817852753296   0.7561971594221856   0.2539454931933750 Cs
   0.7588884793484735   0.2455687851412547   0.7461988816390571 Cs
   0.2408304714828617   0.2457458770960079   0.7462197852255038 Cs
   0.7576519008749074   0.7558750360573673   0.2538833647595000 Cs
   0.7591423441906243   0.7543337669541044   0.7460940875031180 Cs
   0.2447842108559944   0.2456583751473573   0.2537905653722930 Rb
   0.0006441429908611   0.0006686343218096   0.0006395803788560 Zr
   0.0008790620616642   0.4992355387870991   0.5019233198745199 Te
   0.4990528717642854   0.0008317985088022   0.4994149816627382 Te
   0.4991772040937330   0.4992112758290922   0.0001772812388554 Te
   0.2223421808372838   0.0003759516761911   0.0006339318719138 Cl
   0.7787555142328728   0.0005608373650006   0.0008894432678217 Cl
   0.0005292626171009   0.2216596368448013   0.0000574932040342 Cl
   0.0005038379039213   0.7794052510527260   0.0003377446183030 Cl
   0.0009584556799861   0.0008912174724385   0.2209741627592240 Cl
   0.0005918635192834   0.0006981506987775   0.7800369250273171 Cl
   0.2295011410208209   0.4993136408542602   0.5030963821609775 Cl
   0.7718330729043428   0.4991432755780256   0.5036087148717279 Cl
   0.0005256267228701   0.4989004413234356   0.7275660972438228 Cl
   0.0019133615733690   0.4983227642523035   0.2608233409495406 Br
   0.0003274088929963   0.7436899419182514   0.5019854769940080 Br
   0.0026453496432639   0.2553046228289512   0.5004272466121057 Br
   0.4980554457531896   0.2440099836904898   0.4979720914580150 Br
   0.4993557060280144   0.7573291455770608   0.4998572466073818 Br
   0.4990674787368835   0.0007476300201268   0.7398816236537520 Br
   0.4984403526474044   0.0013636485089059   0.2589456671765010 Br
   0.7446838395486046   0.0006238565924766   0.4994763229467667 Br
   0.2540143992125861   0.0022208295823999   0.4978799093509907 Br
   0.4986819076855738   0.4988353504604725   0.2420102799778659 Br
   0.4993620328371197   0.4993004367317259   0.7584106105224522 Br
   0.4993357151243790   0.7625957248134270   -0.0001001298461386 I
   0.4977496274640866   0.2362162953159685   0.0022864167571140 I
   0.7640759835632174   0.4992521928970104   -0.0009393209403119 I
   0.2347590058578393   0.4979305293931958   0.0011565832680570 I
