Random_composition
1.0
  10.9466483379999993  0.0006151960000000  0.0029147830000000
  0.0006174010000000  11.0389016679999994  0.0039239450000000
  0.0029020040000000  0.0039037120000000  10.8516423880000001
Cs Rb Zr Te Cl Br I
7 1 1 3 9 11 4
Direct
   0.7510149607379730   0.2491549208716284   0.2513779192696445 Cs
   0.2485211922653682   0.7503993438365435   0.7486572813977248 Cs
   0.2489809521493312   0.7508415026145528   0.2513792766346526 Cs
   0.7514704994238738   0.2495950447894299   0.7486572021871214 Cs
   0.2485229472012103   0.2495968049968494   0.7486522237764885 Cs
   0.7510158985395643   0.7508416082132858   0.2513752843042791 Cs
   0.7514797094139567   0.7504066461289295   0.7486502738327347 Cs
   0.2494633558307771   0.2495136647854672   0.2509715758386577 Rb
   0.0000831155836571   0.0000778876743965   0.0000395748490232 Zr
   0.0000648202804899   0.4999812315715912   0.5037023629025646 Te
   0.4999666441630118   0.0000444475719031   0.4999780067683520 Te
   0.4999805477305467   0.4999792979194194   0.0000277169042451 Te
   0.2350618350672331   0.0001969888423477   0.0002178539156827 Cl
   0.7649391576961040   0.0000008477653586   0.0000138564297599 Cl
   0.0002068568610129   0.2350532048860375   0.0001683672520495 Cl
   0.0000007168089963   0.7649520239225547   -0.0000443833054604 Cl
   0.0002152014402205   0.0002155638107299   0.2357448241846691 Cl
   0.0000038295190084   0.0000050992344523   0.7643257741335614 Cl
   0.2437166555696493   0.4997751128225946   0.4999702657710217 Cl
   0.7562634205314541   0.4999973978070445   0.5002011216248324 Cl
   -0.0000011572031020   0.4999944053513172   0.7456814151721649 Cl
   0.0003348308678015   0.4996477943376686   0.2502550615360664 Br
   -0.0000014187322541   0.7514359307889399   0.5002036757932883 Br
   0.0003988530507030   0.2485454379556088   0.4998076203468575 Br
   0.4996300314774067   0.2523785701462359   0.4996297494326836 Br
   0.4999984703384058   0.7476215303602928   0.4999970320799225 Br
   0.4999973861026404   0.0000021685845790   0.7527360666291739 Br
   0.4996572566520882   0.0003159201531146   0.2472521920586146 Br
   0.7528212081941824   0.0000022695154753   0.4999893552182235 Br
   0.2471624033523427   0.0003793525102047   0.4996043817906621 Br
   0.4996892350091944   0.4996953923366161   0.2547045542279098 Br
   0.4999958062672503   0.4999956423226500   0.7453609671350246 Br
   0.4999883086217815   0.7674343577939481   -0.0000008042684187 I
   0.4994016869219086   0.2325213533696791   0.0006185194103210 I
   0.7681887455600465   0.4999898166486923   -0.0002581209311262 I
   0.2317668903683729   0.4994116457440559   0.0003506184448116 I
