Random_composition
1.0
  11.1475934429999999  0.0027695850000000  0.0052358220000000
  0.0027942770000000  11.2266750179999999  0.0067840300000000
  0.0051537940000000  0.0066374110000000  11.2022372099999998
Cs Rb Zr Te Cl Br I
7 1 1 3 9 11 4
Direct
   0.7537225072175090   0.2473973582246344   0.2535266160476795 Cs
   0.2453060064006775   0.7516343660365218   0.7466532224349081 Cs
   0.2462962426344836   0.7526052973120572   0.2535283521102276 Cs
   0.7545806481138252   0.2482876265960809   0.7466209296003986 Cs
   0.2453371149673870   0.2483161891206684   0.7465804122228149 Cs
   0.7536855947033760   0.7525692125433728   0.2535063604734361 Cs
   0.7546796474677120   0.7517100656721187   0.7465614993937462 Cs
   0.2477390209187853   0.2483938488162941   0.2526359438930172 Rb
   0.0001945127638916   0.0001877680605770   0.0002185016881673 Zr
   0.0002145931878034   0.4997750582193921   0.5027931726362769 Te
   0.4997395274297243   0.0001939925078859   0.4998994425629576 Te
   0.4998131554606786   0.4998368980966853   -0.0001042507139559 Te
   0.2221435932166760   0.0004187977773723   0.0004591988595099 Cl
   0.7780835508236901   0.0000912279782707   0.0001272490580850 Cl
   0.0004757589557284   0.2200942700321243   0.0002771216875586 Cl
   0.0000888515824006   0.7801375079531557   -0.0000779256368871 Cl
   0.0004948973931072   0.0004841459484474   0.2234726936606891 Cl
   0.0001135643933067   0.0001339222257593   0.7768366562615089 Cl
   0.2295448577151788   0.4993980173365891   0.5009499538041327 Cl
   0.7705338477056368   0.4999304608877829   0.5015698180063678 Cl
   0.0000590415239365   0.4998911298659966   0.7344094094975290 Cl
   0.0009231284852194   0.4990398563755159   0.2590098398127673 Br
   0.0000489034942127   0.7449376527910611   0.5012388114360725 Br
   0.0012908696515581   0.2549986618173850   0.5000923670553616 Br
   0.4988542989286047   0.2447605421784897   0.4988867420015935 Br
   0.4999430994438469   0.7553257328450314   0.5000187131807567 Br
   0.4999128038255546   0.0000902781876092   0.7460627530394632 Br
   0.4990538397337740   0.0008411092238820   0.2538592321789024 Br
   0.7471992292693357   0.0000687890498641   0.4999382914486624 Br
   0.2527348939054992   0.0011685616394329   0.4988341786350285 Br
   0.4991198162356832   0.4991556814694010   0.2484441596972538 Br
   0.4999535548521125   0.4999428643817579   0.7516891980533481 Br
   0.4999070789798645   0.7656350434611076   -0.0000528033440893 I
   0.4982453493258953   0.2342990101508222   0.0016908930037528 I
   0.7688294193691241   0.4999037256102106   -0.0009048920916246 I
   0.2311390029621803   0.4983456698634947   0.0007470833898284 I
