Random_composition
1.0
  10.9690330150000008  0.0002254530000000  0.0019796260000000
  0.0002254530000000  11.0424302040000004  0.0027052940000000
  0.0019796270000000  0.0027052930000000  10.8555967259999999
Cs Rb Zr Te Cl Br I
7 1 1 3 9 11 4
Direct
   0.7506101237683055   0.2494425751951595   0.2508217029340949 Cs
   0.2490718850354520   0.7502548720089415   0.7491930177673034 Cs
   0.2493860896297166   0.7505544589558237   0.2508223091796570 Cs
   0.7509276851011134   0.2497442918722734   0.7491939888313163 Cs
   0.2490712323628688   0.2497445768336261   0.7491933888929656 Cs
   0.7506134990252522   0.7505569040543225   0.2508211807823361 Cs
   0.7509292495787887   0.7502554928525047   0.7491926961298297 Cs
   0.2496772204239502   0.2496683963560831   0.2505712375583497 Rb
   0.0000455798554511   0.0000416536368370   0.0000119566972572 Zr
   0.0000347570435731   0.5000066797726944   0.5031356086618231 Te
   0.4999939536075152   0.0000239650965460   0.4999983207866416 Te
   0.5000000596554788   0.4999956547235631   0.0000568878572723 Te
   0.2430560366912551   0.0001263144848313   0.0001417239670304 Cl
   0.7569436589717721   -0.0000027779699827   0.0000075115324793 Cl
   0.0001289962902655   0.2430895741968705   0.0001162640710510 Cl
   -0.0000037019314220   0.7569121926206195   -0.0000209719180373 Cl
   0.0001393313386721   0.0001405286322800   0.2432974815358661 Cl
   -0.0000025582755014   -0.0000015577899808   0.7567396078378150 Cl
   0.2480827363108910   0.4998611392557046   0.4998819276905576 Cl
   0.7519056058073836   0.5000002417674037   0.5000230754204922 Cl
   -0.0000032254755601   0.4999989814325799   0.7489562819396096 Cl
   0.0002111829803370   0.4997766859252386   0.2479511358984236 Br
   -0.0000036216790035   0.7532026069080791   0.5000510344746862 Br
   0.0002292736562927   0.2467769996282956   0.4998179352768522 Br
   0.4997845624565393   0.2539491050042312   0.4997812412745010 Br
   0.5000005004713397   0.7460517738183021   0.4999947984086392 Br
   0.5000010370731555   -0.0000019746547904   0.7537365652771398 Br
   0.4997853934290365   0.0002002417998008   0.2462453366313276 Br
   0.7539844387570852   -0.0000011423550659   0.4999925414410469 Br
   0.2459971268463334   0.0002230065854381   0.4997627077836782 Br
   0.4998063530041257   0.4998100233104593   0.2550627576888330 Br
   0.4999978136330552   0.4999979016296557   0.7449629674097841 Br
   0.4999955218041564   0.7655920939599958   0.0000045178692755 I
   0.4996535634468382   0.2343620297117851   0.0003681837786428 I
   0.7657518682225121   0.4999966128827458   -0.0001260677030730 I
   0.2341981171356152   0.4996514762413912   0.0002390169092396 I
