Random_composition
1.0
  10.9634762000000006  0.0002227820000000  0.0019561720000000
  0.0002227820000000  11.0360038239999998  0.0026732440000000
  0.0019561740000000  0.0026732430000000  10.8513838350000000
Cs Rb Zr Te Cl Br I
7 1 1 3 9 11 4
Direct
   0.7506026048499806   0.2494491973602999   0.2508126977181172 Cs
   0.2490822471224790   0.7502517978724601   0.7492018778234777 Cs
   0.2493928119175064   0.7505483042919115   0.2508127799548220 Cs
   0.7509168295244312   0.2497470960061506   0.7492033796072831 Cs
   0.2490814720001650   0.2497472592840282   0.7492026125012984 Cs
   0.7506061042413463   0.7505499662411439   0.2508118156675544 Cs
   0.7509185169122855   0.7502525409245787   0.7492017230002835 Cs
   0.2496803184996529   0.2496714027313690   0.2505647382044409 Rb
   0.0000446908907539   0.0000407718295211   0.0000119619382980 Zr
   0.0000341548611604   0.5000066302372557   0.5031001922404098 Te
   0.4999939626562325   0.0000228335659832   0.4999990735992973 Te
   0.5000000364080098   0.4999951563455777   0.0000567028948939 Te
   0.2431345358777130   0.0001246337508080   0.0001404478797756 Cl
   0.7568648697807401   -0.0000035008543803   0.0000073217843731 Cl
   0.0001272955132502   0.2431676997011926   0.0001151654399903 Cl
   -0.0000035179444901   0.7568346467590316   -0.0000205685099827 Cl
   0.0001380845241334   0.0001385800756609   0.2433744303566573 Cl
   -0.0000027511448400   -0.0000020606041298   0.7566620198621157 Cl
   0.2481047737511785   0.4998628585969627   0.4998826409130476 Cl
   0.7518838301247517   0.5000003532592054   0.5000230980180704 Cl
   -0.0000033295454042   0.4999996297807821   0.7489683812758476 Cl
   0.0002092014945569   0.4997793715474304   0.2479751522456013 Br
   -0.0000032815530291   0.7531669413678957   0.5000501954331867 Br
   0.0002259574683965   0.2468134165693828   0.4998201011017287 Br
   0.4997872637283882   0.2539046432109575   0.4997835910653420 Br
   0.5000006937572893   0.7460963345142942   0.4999949773773005 Br
   0.5000006881117511   -0.0000023738777742   0.7536939106900453 Br
   0.4997874829419893   0.0001984658260060   0.2462876477147802 Br
   0.7539389675629915   -0.0000013199183631   0.4999929273288312 Br
   0.2460426121537386   0.0002201151197114   0.4997655775863425 Br
   0.4998086115159284   0.4998119835324035   0.2550049109937035 Br
   0.4999975481709372   0.4999977415958851   0.7450206743915685 Br
   0.4999955642666424   0.7654164252713760   0.0000051401564581 I
   0.4996578583144050   0.2345384936885130   0.0003636038248170 I
   0.7655727709768055   0.4999961821121982   -0.0001247954945648 I
   0.2343780545870666   0.4996552412121043   0.0002364505647923 I
