Random_composition
1.0
  11.1922093740000008  0.0071098800000000  0.0073997940000000
  0.0071748840000000  11.2405585939999995  0.0107973840000000
  0.0072728620000000  0.0105479790000000  11.3663636659999998
Cs Rb Zr Te Cl Br I
7 1 1 3 9 11 4
Direct
   0.7581678954236635   0.2438616805347648   0.2538882909563270 Cs
   0.2405003216402690   0.7540795525367378   0.7465578711026649 Cs
   0.2421779991450451   0.7563307458904047   0.2538948800162919 Cs
   0.7589950459289656   0.2454800066129636   0.7462318908983413 Cs
   0.2407218890873303   0.2456689993398151   0.7462770305740011 Cs
   0.7577538602924284   0.7559833461941724   0.2538270127388926 Cs
   0.7592442481329582   0.7544163882492811   0.7461380151769210 Cs
   0.2446936217171798   0.2455432201350658   0.2538215543639271 Rb
   0.0007326675461679   0.0007257721527820   0.0006358006995742 Zr
   0.0009470890182102   0.4991728625977251   0.5016558855769166 Te
   0.4989918963108493   0.0008865099892003   0.4993714927272200 Te
   0.4991442746346656   0.4991797638114173   0.0001668607174866 Te
   0.2222342687928771   0.0003854813915348   0.0006555614635903 Cl
   0.7788506014675085   0.0005802695858420   0.0009396497343095 Cl
   0.0005440720098473   0.2216451787421130   0.0000486334846238 Cl
   0.0005168770909437   0.7794392472607176   0.0003598574248415 Cl
   0.0010102597712479   0.0009424187968679   0.2208483225059049 Cl
   0.0006075975826740   0.0007193474972054   0.7802264644549071 Cl
   0.2297104940660995   0.4993185426346989   0.5031722566407920 Cl
   0.7716917886078336   0.4990820239563259   0.5036633551148123 Cl
   0.0005538213834180   0.4988293273330348   0.7277014965463426 Cl
   0.0019752675283279   0.4982861210423216   0.2608666486455908 Br
   0.0003307694446348   0.7438698690555192   0.5019728271425190 Br
   0.0027197951942159   0.2550809622875561   0.5003953625017625 Br
   0.4980193534607759   0.2441593148106182   0.4979207637378783 Br
   0.4993153117942702   0.7572512978522460   0.4998440137454834 Br
   0.4990054753385643   0.0007925409799030   0.7398125866816980 Br
   0.4984088928341636   0.0013891579414487   0.2589558951380405 Br
   0.7446986190890039   0.0006554026810211   0.4994501736710696 Br
   0.2539331541087488   0.0022759967706151   0.4978290804723149 Br
   0.4986577242888032   0.4988206694742494   0.2419079802516943 Br
   0.4993179550778143   0.4992526574834681   0.7585490646517604 Br
   0.4993079629818233   0.7626009973835389   -0.0001151530880605 I
   0.4977389799160098   0.2361588062443802   0.0022977389721369 I
   0.7641015896684344   0.4992187141330297   -0.0009364868860337 I
   0.2346783294599098   0.4979182393105601   0.0011681145056979 I
