Random_composition
1.0
  11.2075965709999998  0.0051569570000000  0.0066915690000000
  0.0052025430000000  11.2731472210000003  0.0093893840000000
  0.0065843180000000  0.0091855550000000  11.3346012849999997
Cs Rb Zr Te Cl Br I
7 1 1 3 9 11 4
Direct
   0.7567797235688799   0.2450738112609017   0.2541125877935693 Cs
   0.2419526229576145   0.7533022859423283   0.7462466213162396 Cs
   0.2433973018229609   0.7550181321717852   0.2541220518098281 Cs
   0.7576981918455805   0.2464120662298056   0.7460717796881927 Cs
   0.2420746862108021   0.2465184690368421   0.7460231967008435 Cs
   0.7565529340219973   0.7548224527588601   0.2540786467531279 Cs
   0.7579250402371847   0.7535321942445580   0.7459594631138630 Cs
   0.2456296217784054   0.2465890240977160   0.2535423135883149 Rb
   0.0004947025764399   0.0004926086024551   0.0004571898244981 Zr
   0.0006270056284036   0.4994281271666277   0.5018708941628384 Te
   0.4993066289152452   0.0005877487251279   0.4996235151329349 Te
   0.4994497506186733   0.4994678052950842   0.0000280735514332 Te
   0.2216000902743756   0.0003780813002187   0.0005499618026495 Cl
   0.7791451208093717   0.0003917905364309   0.0005736962269597 Cl
   0.0004926368270583   0.2206248294479093   0.0001389702384277 Cl
   0.0003631790856569   0.7801083794041301   0.0001652314518310 Cl
   0.0007318543033897   0.0006863796884314   0.2208431152648142 Cl
   0.0004186537678129   0.0004926497381492   0.7799341459474952 Cl
   0.2295152169534916   0.4992980952489284   0.5024699094691133 Cl
   0.7712606996818848   0.4995039385493174   0.5030948048493740 Cl
   0.0003259364580146   0.4993444195705846   0.7288795675065598 Cl
   0.0015353899042859   0.4985595399017929   0.2609521486018034 Br
   0.0002291539776822   0.7432288327435814   0.5019585482216498 Br
   0.0021665498483554   0.2561903568349205   0.5004834215255572 Br
   0.4982943266601789   0.2436083988736980   0.4982793972472932 Br
   0.4996163960011333   0.7571764233032100   0.4999379527992358 Br
   0.4994477512088051   0.0004655576074452   0.7409535923178917 Br
   0.4986325756386411   0.0012024652605396   0.2583409863019622 Br
   0.7447910831103508   0.0003911429892159   0.4996684368580379 Br
   0.2544577683988934   0.0018638585552276   0.4981974783069290 Br
   0.4987935162379231   0.4989031378861648   0.2426876628884369 Br
   0.4996292044710692   0.4995875860219653   0.7576054649916232 Br
   0.4995625714608909   0.7620653064590921   -0.0000668908586289 I
   0.4978035732166207   0.2371975436542083   0.0021793244948844 I
   0.7636648777194734   0.4995145477318154   -0.0010040273881920 I
   0.2356332531963162   0.4979714355568906   0.0010390836432556 I
