Random_composition
1.0
  11.1158626110000007  0.0022765730000000  0.0051621550000000
  0.0022977890000000  11.1946031430000001  0.0066753030000000
  0.0050755000000000  0.0065234810000000  11.1795163130000006
Cs Rb Zr Te Cl Br I
7 1 1 3 9 11 4
Direct
   0.7529551141718409   0.2479270214868106   0.2531208025262882 Cs
   0.2461970277281097   0.7512339877144271   0.7470175045569019 Cs
   0.2470485003167259   0.7520665297608777   0.2531222591531930 Cs
   0.7537298184567882   0.2487145817548680   0.7470000177864825 Cs
   0.2462181587538505   0.2487347341059671   0.7469677909296786 Cs
   0.7529381764050592   0.7520512040189707   0.2531024569890655 Cs
   0.7537977748932873   0.7512880122906764   0.7469601966781474 Cs
   0.2482621443508730   0.2487733586801726   0.2522871040049360 Rb
   0.0000772619434175   0.0000990313657103   0.0001850652603900 Zr
   0.0001653820735856   0.4998371145980368   0.5030273604540617 Te
   0.4998192747957995   0.0001349723286170   0.4999115165610051 Te
   0.4998732146418983   0.4998929157532029   -0.0001232038717931 Te
   0.2216415397039370   0.0004022139704029   0.0004278509895750 Cl
   0.7785765102174932   0.0000488664728647   0.0000725023474802 Cl
   0.0004474856185593   0.2195126640850242   0.0002792944146556 Cl
   0.0000482800715541   0.7806824810636412   -0.0001021100828644 Cl
   0.0004480812174039   0.0004418286308092   0.2242489448921938 Cl
   0.0000675967078527   0.0000793094799725   0.7759673029460971 Cl
   0.2316789417523213   0.4994716234395561   0.5006468756128266 Cl
   0.7683368966906501   0.4999660314636006   0.5011921933135728 Cl
   0.0000303898059277   0.4999416657793146   0.7375491345214614 Cl
   0.0007809006627116   0.4991801788840250   0.2566456105607808 Br
   0.0000253655892207   0.7465045160256738   0.5009811308840618 Br
   0.0010777299142242   0.2534690917349883   0.4999869669766336 Br
   0.4990300755192025   0.2468759531466363   0.4990587965887285 Br
   0.4999703347161356   0.7531620205006935   0.5000181881251538 Br
   0.4999528846681454   0.0000495558756373   0.7491494802129514 Br
   0.4991916019490417   0.0007233205526836   0.2508273335521171 Br
   0.7492852898698935   0.0000377576827979   0.4999654425702610 Br
   0.2506836481639420   0.0009838660137691   0.4990143766829404 Br
   0.4992535903654674   0.4992781048139805   0.2518856687633985 Br
   0.4999758938639368   0.4999704225531590   0.7482668622389826 Br
   0.4999409681881738   0.7681658736735760   -0.0000392246602975 I
   0.4984840195432457   0.2317970084624018   0.0014785463429123 I
   0.7711911761721570   0.4999417394355253   -0.0007726873629646 I
   0.2287965485525185   0.4985620904926248   0.0006718415649004 I
