Random_composition
1.0
  11.1859852360000005  0.0066406450000000  0.0065344180000000
  0.0067068050000000  11.2290008040000000  0.0100640240000000
  0.0063840690000000  0.0097871080000000  11.3748321410000006
Cs Rb Zr Te Cl Br I
7 1 1 3 9 11 4
Direct
   0.7582413722402913   0.2436933731264492   0.2535688230138167 Cs
   0.2404316297144374   0.7540665455105102   0.7468532168310799 Cs
   0.2422573267219520   0.7566060271850124   0.2535547296343615 Cs
   0.7590085529524304   0.2454701379736135   0.7464224349198316 Cs
   0.2407418834724710   0.2457336748188098   0.7466645412453210 Cs
   0.7576740523350771   0.7561428061568582   0.2534331202387541 Cs
   0.7591959860044877   0.7544093413286863   0.7464256700336802 Cs
   0.2446538701651784   0.2451874675264760   0.2539126486428682 Rb
   0.0009198545358703   0.0008786888053825   0.0007248587089930 Zr
   0.0011539973915295   0.4989944694802463   0.5019907543426804 Te
   0.4987880319914964   0.0010785979003180   0.4992433985026851 Te
   0.4990424520687703   0.4990750415847576   0.0002036377146858 Te
   0.2222720374014076   0.0004832361060954   0.0007879429065008 Cl
   0.7789397132705631   0.0006461650620483   0.0011801122978873 Cl
   0.0006670604001978   0.2218509964141344   0.0000565219238586 Cl
   0.0005408120668181   0.7794158909107278   0.0004846142613322 Cl
   0.0013573251061563   0.0012905823559956   0.2206000151135408 Cl
   0.0006250011513901   0.0007467736240865   0.7806522584563518 Cl
   0.2303515515004654   0.4993254653439564   0.5031379357748813 Cl
   0.7714251866546128   0.4987389028018717   0.5034887367211425 Cl
   0.0006963427081128   0.4984816203148571   0.7279842564856769 Cl
   0.0022922417816327   0.4980957035118982   0.2613359157806671 Br
   0.0002884476778549   0.7441399673671660   0.5016591895104396 Br
   0.0030566139445437   0.2545218991896806   0.4999527414393034 Br
   0.4978524644020574   0.2449116635141879   0.4976620276119624 Br
   0.4991141594032176   0.7568273013930867   0.4997578672688797 Br
   0.4986972958018978   0.0010168625539574   0.7397463949692066 Br
   0.4982313086232890   0.0015031650687231   0.2587466068946046 Br
   0.7447423444798025   0.0007700698301866   0.4993626034922967 Br
   0.2535580424105232   0.0025101296759389   0.4975895743865223 Br
   0.4985213023540399   0.4987446309271590   0.2417093317432711 Br
   0.4991110620595165   0.4990265240965506   0.7587880223451056 Br
   0.4992306434322791   0.7626544302808311   -0.0002477007271600 I
   0.4976693877000675   0.2359953934248089   0.0023185359190126 I
   0.7640139257537637   0.4991321905811994   -0.0009517208306624 I
   0.2346367727271428   0.4978341558185128   0.0011979579292020 I
