Random_composition
1.0
  11.1844653019999996  0.0058529230000000  0.0059176180000000
  0.0059181860000000  11.2235950679999998  0.0094507840000000
  0.0057537890000000  0.0091582600000000  11.3780560439999991
Cs Rb Zr Te Cl Br I
7 1 1 3 9 11 4
Direct
   0.7580943508880528   0.2437439163254010   0.2533139496741067 Cs
   0.2405783301494591   0.7539126654156599   0.7470240303544237 Cs
   0.2425332552977525   0.7566444541776803   0.2532694413173713 Cs
   0.7588195652759041   0.2456264658394742   0.7465060991229233 Cs
   0.2409714311204860   0.2459540674178678   0.7469491740496677 Cs
   0.7573986537543692   0.7561007844526872   0.2531014303111895 Cs
   0.7589267918190156   0.7542494496509539   0.7466109043297380 Cs
   0.2447589992368268   0.2449875495781047   0.2540210976417917 Rb
   0.0008735191734186   0.0009344176825975   0.0008038279853925 Zr
   0.0013250442844933   0.4988139166517592   0.5019326635610323 Te
   0.4986139927597113   0.0012278220928209   0.4991202158803503 Te
   0.4989622142602167   0.4990047867633458   0.0002128083879657 Te
   0.2225561569911568   0.0005692840098271   0.0008716442827153 Cl
   0.7789972426599410   0.0007063293733240   0.0014232234808761 Cl
   0.0007729501187586   0.2221449570713995   0.0000471066382887 Cl
   0.0005591434817660   0.7793920573491073   0.0006416583983163 Cl
   0.0016782995043571   0.0016197549819128   0.2206426783979530 Cl
   0.0006136198818639   0.0007382251302782   0.7808108307491206 Cl
   0.2304696470663950   0.4993500856333386   0.5031436738165151 Cl
   0.7716063560889210   0.4983852640871785   0.5033112664160668 Cl
   0.0008217327793257   0.4981981698974653   0.7283772150495499 Cl
   0.0025666489770241   0.4979453648332750   0.2618223030318002 Br
   0.0002253735432759   0.7440972010367994   0.5015150516341982 Br
   0.0033376676005767   0.2542932371166238   0.4996738420443554 Br
   0.4977222875456358   0.2450312136962920   0.4974469198139518 Br
   0.4989237310015999   0.7569618887878952   0.4996709151946617 Br
   0.4984367084311292   0.0012304970548867   0.7394513421505915 Br
   0.4980650594336247   0.0015890169797613   0.2588243204634084 Br
   0.7445954457406486   0.0008632765338122   0.4993168945536541 Br
   0.2534204528248774   0.0026703949014944   0.4974000035995417 Br
   0.4984206201681196   0.4987136188668904   0.2416473685701906 Br
   0.4989475493076472   0.4988339236037108   0.7588487008631324 Br
   0.4992037885139176   0.7628724810460517   -0.0003949567786545 I
   0.4976171317471228   0.2357262682218469   0.0023261876859827 I
   0.7641421728311333   0.4991026579449561   -0.0009385445852325 I
   0.2344418651894334   0.4977662062127926   0.0012549052004990 I
