Random_composition
1.0
  11.2170894780000001  0.0034952760000000  0.0054894800000000
  0.0035254440000000  11.2953237620000007  0.0073220920000000
  0.0054027810000000  0.0071656400000000  11.2833450689999992
Cs Rb Zr Te Cl Br I
7 1 1 3 9 11 4
Direct
   0.7550495530096099   0.2464489089084231   0.2540842836467025 Cs
   0.2437830510003196   0.7523406443681332   0.7461655208555948 Cs
   0.2450038881360661   0.7535705132741837   0.2540901945209733 Cs
   0.7560237780643356   0.2475184646699347   0.7461012153877947 Cs
   0.2438374509169202   0.2475698715424819   0.7460419475197456 Cs
   0.7549668724168866   0.7534959473579054   0.2540601603757460 Cs
   0.7561807110653155   0.7524663732855713   0.7460092092924113 Cs
   0.2468232942450365   0.2476912787677595   0.2531661872134111 Rb
   0.0002645391186538   0.0002715143176793   0.0003116593300551 Zr
   0.0003042018578102   0.4996949830545409   0.5027214432213446 Te
   0.4996383774292391   0.0002843512521176   0.4998557722540428 Te
   0.4997186052107499   0.4997460580876156   -0.0000250264350829 Te
   0.2225484415410180   0.0004283666827144   0.0005011978456997 Cl
   0.7778548984470803   0.0001867497416216   0.0002489167597116 Cl
   0.0005062858524689   0.2211221595912044   0.0002577377489024 Cl
   0.0001803311426204   0.7792719932996007   -0.0000130184046722 Cl
   0.0005738183009117   0.0005510668654148   0.2223828837750869 Cl
   0.0002126531095351   0.0002491160207306   0.7780757350685775 Cl
   0.2287260212731458   0.4992957319134916   0.5015036311654667 Cl
   0.7715338748722244   0.4998355705535852   0.5022132003886605 Cl
   0.0001274286183176   0.4997627792601587   0.7308710263671925 Cl
   0.0011618263903613   0.4988141218834245   0.2608190426942917 Br
   0.0001015377542800   0.7434027829120762   0.5016337038731213 Br
   0.0016513401315070   0.2563998640406273   0.5002695137912991 Br
   0.4985714483124958   0.2426840122905434   0.4986106613718593 Br
   0.4998674385874493   0.7575692482729833   0.5000103215367682 Br
   0.4998060752596152   0.0001863419895933   0.7421872599767065 Br
   0.4988365922960896   0.0010234884084920   0.2575897603639117 Br
   0.7446440357629154   0.0001492091151109   0.4998713736435930 Br
   0.2551251178613884   0.0014745816788629   0.4985444178429113 Br
   0.4989185505368222   0.4989807943979237   0.2437351331980597 Br
   0.4998873653110427   0.4998672973665285   0.7563586641885023 Br
   0.4998207599237275   0.7619403971264903   -0.0000675999667473 I
   0.4979081840134514   0.2378546555886440   0.0019998634423731 I
   0.7648538179939833   0.4998080960305750   -0.0010660216916816 I
   0.2349887136348003   0.4980425941022154   0.0008794661868141 I
