Random_composition
1.0
  11.1821207759999997  0.0060768890000000  0.0060062720000000
  0.0061425570000000  11.2220117370000008  0.0095261590000000
  0.0058444250000000  0.0092358490000000  11.3751977899999996
Cs Rb Zr Te Cl Br I
7 1 1 3 9 11 4
Direct
   0.7581568983199204   0.2437176607701942   0.2533946805563553 Cs
   0.2405288753221026   0.7539779377745878   0.7469876973834341 Cs
   0.2424291078349109   0.7566376675314438   0.2533605223677902 Cs
   0.7588854515684854   0.2455570193893598   0.7465024230010129 Cs
   0.2408912228351349   0.2458639526876867   0.7468688597358946 Cs
   0.7575035018705376   0.7561209496779361   0.2532050301638711 Cs
   0.7590262572365727   0.7543186078495470   0.7465703436220305 Cs
   0.2447156891029069   0.2450627699145932   0.2539679500462904 Rb
   0.0008826515092512   0.0009185176929885   0.0007600701780295 Zr
   0.0012754824000510   0.4988808969840523   0.5018453327798392 Te
   0.4986822835932004   0.0011744295144924   0.4991529550151997 Te
   0.4989897297246230   0.4990304631361616   0.0002144216272470 Te
   0.2224847816505487   0.0005418036035506   0.0008508453880934 Cl
   0.7789370420461466   0.0006802928496068   0.0013243736025397 Cl
   0.0007391963653944   0.2220399563433857   0.0000554163776952 Cl
   0.0005490271867113   0.7793808830143535   0.0005680952805855 Cl
   0.0015651178746690   0.0015017637888124   0.2206270466472214 Cl
   0.0006199531155668   0.0007427656110844   0.7807520681967544 Cl
   0.2304046254133155   0.4993358802000432   0.5031208669788342 Cl
   0.7715536296005956   0.4985275775479293   0.5033676681298765 Cl
   0.0007747099247602   0.4982973903286884   0.7282632477823415 Cl
   0.0024647280001735   0.4979968920626135   0.2618118166891171 Br
   0.0002493499474764   0.7440801683802626   0.5015350398002755 Br
   0.0032334191117936   0.2544218325201208   0.4997440063304311 Br
   0.4977675744505853   0.2450300455573492   0.4975259491625343 Br
   0.4989975050933235   0.7568725314837614   0.4997067217746761 Br
   0.4985307026371875   0.0011468373388406   0.7395814050319710 Br
   0.4981262547768744   0.0015605765352929   0.2587887530633665 Br
   0.7446509278065039   0.0008272210737744   0.4993319367805968 Br
   0.2534721766255973   0.0026203093126898   0.4974676238732559 Br
   0.4984505518933064   0.4987153109200433   0.2416560467612950 Br
   0.4990037737956075   0.4989042254507622   0.7588404497209309 Br
   0.4992091250622200   0.7627517849389978   -0.0003379704372480 I
   0.4976334733365309   0.2358672003052451   0.0023220844188805 I
   0.7640384099082741   0.4991080001526696   -0.0009541464576136 I
   0.2345758219854782   0.4977880403937825   0.0012209955416909 I
