Random_composition
1.0
  11.1834421140000000  0.0060146120000000  0.0060025260000000
  0.0060801310000000  11.2232042540000005  0.0095290630000000
  0.0058405740000000  0.0092386730000000  11.3764606629999996
Cs Rb Zr Te Cl Br I
7 1 1 3 9 11 4
Direct
   0.7581349451773162   0.2437280161343148   0.2533702582064170 Cs
   0.2405442748350884   0.7539550901436104   0.7469952116849333 Cs
   0.2424646994918610   0.7566387479699319   0.2533322644372925 Cs
   0.7588644671703747   0.2455830798039594   0.7464988427628114 Cs
   0.2409171186666209   0.2458959702754152   0.7468905296859248 Cs
   0.7574675096895034   0.7561134003786483   0.2531743672018339 Cs
   0.7589929166212601   0.7542941721055996   0.7465781019417601 Cs
   0.2447311550311339   0.2450371089662425   0.2539881344843743 Rb
   0.0008816469329949   0.0009228659972606   0.0007775629086385 Zr
   0.0012890059193616   0.4988580156544039   0.5018949902248020 Te
   0.4986593041538392   0.0011921129252632   0.4991442939112729 Te
   0.4989809565445023   0.4990212003127096   0.0002126891175030 Te
   0.2225023056387048   0.0005500947645498   0.0008560819156481 Cl
   0.7789639165662389   0.0006898458881553   0.0013587420297680 Cl
   0.0007492734912296   0.2220742809634788   0.0000518036909602 Cl
   0.0005532950385909   0.7793880407486301   0.0005950744516194 Cl
   0.0016016546720908   0.0015407379010581   0.2206323898610277 Cl
   0.0006174611666024   0.0007406967767054   0.7807717618552138 Cl
   0.2304304279848685   0.4993418675900566   0.5031326301567528 Cl
   0.7715691863621884   0.4984778760371319   0.5033506270924112 Cl
   0.0007910636854626   0.4982656137934703   0.7282956881433281 Cl
   0.0024986267514330   0.4979804620025722   0.2617835021764509 Br
   0.0002411220346426   0.7440918695819583   0.5015345478152500 Br
   0.0032686447855679   0.2543706289102169   0.4997271677487850 Br
   0.4977523456915716   0.2450227147405872   0.4974998428224452 Br
   0.4989724390297475   0.7569097175920128   0.4996942751330282 Br
   0.4984997906996377   0.0011751908321659   0.7395337436484620 Br
   0.4981059366188855   0.0015693471465471   0.2588015059316751 Br
   0.7446319708529647   0.0008391730080266   0.4993268555990490 Br
   0.2534540418635071   0.0026355960169663   0.4974458830740671 Br
   0.4984419173146754   0.4987167088141792   0.2416556315652411 Br
   0.4989854303417671   0.4988805325799845   0.7588406639538982 Br
   0.4992080355363530   0.7627991583294982   -0.0003573405270065 I
   0.4976287799816741   0.2358128238452890   0.0023237363392958 I
   0.7640832585940975   0.4991072920939661   -0.0009469073708517 I
   0.2345195859091766   0.4977810187108450   0.0012349098561262 I
