Random_composition
1.0
  11.1788163960000002  0.0032547060000000  0.0053083110000000
  0.0032828180000000  11.2582335550000003  0.0068910170000000
  0.0052308350000000  0.0067495180000000  11.2245944400000006
Cs Rb Zr Te Cl Br I
7 1 1 3 9 11 4
Direct
   0.7544762344948186   0.2468780303368177   0.2539257681011782 Cs
   0.2444317344119441   0.7520271512160789   0.7462960281754268 Cs
   0.2455572438895768   0.7531338599115395   0.2539278067269934 Cs
   0.7554156439823471   0.2478687717514511   0.7462489621057138 Cs
   0.2444733708346064   0.2479054828768134   0.7461992487293371 Cs
   0.7544179414122135   0.7530782535749322   0.2539036804518426 Cs
   0.7555449094925167   0.7521237318230011   0.7461700714439221 Cs
   0.2472258604049569   0.2480218461852821   0.2529782737956360 Rb
   0.0003093160425706   0.0002742259402612   0.0002509193872160 Zr
   0.0002621664608934   0.4997140153214548   0.5025620391647908 Te
   0.4996606208233134   0.0002513489345205   0.4998885210484660 Te
   0.4997532434750153   0.4997821370468090   -0.0000852460948522 Te
   0.2226350195468910   0.0004363103775522   0.0004895657908977 Cl
   0.7776000878799603   0.0001330504321559   0.0001818631450809 Cl
   0.0005040030205124   0.2206639687633142   0.0002758875121716 Cl
   0.0001289040386013   0.7796018714786487   -0.0000546063392841 Cl
   0.0005414986558162   0.0005253976964199   0.2227103632469656 Cl
   0.0001575668127463   0.0001874580654625   0.7776911601101587 Cl
   0.2274515270990223   0.4993258049364095   0.5012476650289004 Cl
   0.7726903335158161   0.4998952312736830   0.5019400534230863 Cl
   0.0000870985746008   0.4998425007441199   0.7313266557970826 Cl
   0.0010614018170027   0.4989017734049669   0.2613311724380837 Br
   0.0000712356778597   0.7434012540671644   0.5014913332743333 Br
   0.0014993996464804   0.2564993006688782   0.5001966467199117 Br
   0.4986811122841932   0.2426855703604627   0.4987182855557283 Br
   0.4999149927519986   0.7574490258218073   0.5000186627349841 Br
   0.4998733942701112   0.0001295007368743   0.7430322466217149 Br
   0.4989180604429082   0.0009568687760975   0.2568355595725781 Br
   0.7451517607366627   0.0001004237878931   0.4999106061857663 Br
   0.2547467523721513   0.0013488057624503   0.4986584112493537 Br
   0.4989884139230306   0.4990358250319926   0.2450647428433588 Br
   0.4999321152863458   0.4999164941952105   0.7550492195594277 Br
   0.4998735878455798   0.7631511162795157   -0.0000661379602434 I
   0.4980118326885964   0.2367543968494333   0.0018998387737646 I
   0.7665117786468165   0.4998672469691609   -0.0010346455424209 I
   0.2334379895530140   0.4981327361469530   0.0008212499300948 I
