Random_composition
1.0
  11.1968276689999993  0.0059588610000000  0.0070907200000000
  0.0060115540000000  11.2569105539999992  0.0100572550000000
  0.0069771890000000  0.0098373760000000  11.3426983060000008
Cs Rb Zr Te Cl Br I
7 1 1 3 9 11 4
Direct
   0.7573517675009542   0.2445669136498224   0.2540489115659290 Cs
   0.2413301593103500   0.7536179526809695   0.7463435277135092 Cs
   0.2428790898123964   0.7555530776131898   0.2540620357405012 Cs
   0.7582571970525103   0.2460303639739742   0.7461186740674196 Cs
   0.2414902349796031   0.2461689138506984   0.7460880690395183 Cs
   0.7570632861306730   0.7553093669835063   0.2540088310189889 Cs
   0.7585034926914944   0.7538952541322783   0.7460058725906664 Cs
   0.2452462781594245   0.2461726321162229   0.2536561520686289 Rb
   0.0004137788056077   0.0005056418118715   0.0005661775063090 Zr
   0.0007104145503810   0.4993684414751942   0.5021550016790574 Te
   0.4992084018745598   0.0006850061293491   0.4995472162670550 Te
   0.4993278014205867   0.4993513494628739   0.0001117284866070 Te
   0.2219721317438781   0.0003723562937617   0.0005811944130011 Cl
   0.7790637205466721   0.0004699943998635   0.0007098090969817 Cl
   0.0005046434678055   0.2210540780361720   0.0001025527128986 Cl
   0.0004322639571959   0.7798840530345943   0.0002436318123748 Cl
   0.0008220681228680   0.0007650954435583   0.2208404392506942 Cl
   0.0005023015617245   0.0005884166063995   0.7800102128947881 Cl
   0.2293159048555770   0.4993028790625012   0.5027447803785531 Cl
   0.7717173646794571   0.4993510461554455   0.5033234344619990 Cl
   0.0004144143984502   0.4991543812309631   0.7279693698843522 Cl
   0.0016962798088058   0.4984576381510593   0.2609277595804240 Br
   0.0002785945519017   0.7432758901981501   0.5019760339027185 Br
   0.0023729508862585   0.2559443429473082   0.5004672542109367 Br
   0.4981910320463590   0.2437294729581827   0.4981483298763048 Br
   0.4995039391550100   0.7573006597405920   0.4999032539358342 Br
   0.4992861090877335   0.0005864104154641   0.7404061694807706 Br
   0.4985499204546646   0.0012716228548981   0.2586732057856709 Br
   0.7447164129815619   0.0004946071178119   0.4995834586421763 Br
   0.2542847758934059   0.0020169962923845   0.4980602057818525 Br
   0.4987484010250652   0.4988769958643094   0.2423723268847421 Br
   0.4995154991263915   0.4994653753877925   0.7579664549720316 Br
   0.4994609091686266   0.7623321234785154   -0.0000756879884499 I
   0.4977812924938970   0.2367276397076703   0.0022287061961462 I
   0.7638024696017701   0.4993970713780161   -0.0009714155171110 I
   0.2352852931349578   0.4979560940173262   0.0010935304911852 I
