Random_composition
1.0
  11.1883425590000005  0.0071462990000000  0.0071358280000000
  0.0072133050000000  11.2335778560000001  0.0106410620000000
  0.0069995350000000  0.0103793360000000  11.3706026960000006
Cs Rb Zr Te Cl Br I
7 1 1 3 9 11 4
Direct
   0.7583058827023831   0.2436985949619743   0.2537522174445822 Cs
   0.2403603266525988   0.7541374835141550   0.7466930499048355 Cs
   0.2421052725081599   0.7565342180957100   0.2537545394944306 Cs
   0.7591004608334319   0.2453954534375406   0.7463203269275697 Cs
   0.2406239828247127   0.2456228070554764   0.7464353023356570 Cs
   0.7578262990467012   0.7561394627816298   0.2536599186590751 Cs
   0.7593326772655377   0.7544905048719075   0.7462667704821458 Cs
   0.2446048898234875   0.2453347395073365   0.2538778283423728 Rb
   0.0006649775889495   0.0007306871128935   0.0006760837356612 Zr
   0.0010428917978326   0.4990774222219312   0.5017149923211813 Te
   0.4988833596606843   0.0009874238109921   0.4993121032109102 Te
   0.4990898751249463   0.4991225117266297   0.0001695061337748 Te
   0.2221626592540833   0.0004241692069868   0.0007150167921680 Cl
   0.7791366896876166   0.0006178926071228   0.0010512758100820 Cl
   0.0005971100231329   0.2216742772283341   0.0000463378601709 Cl
   0.0005384063413287   0.7795621266353623   0.0004151749233342 Cl
   0.0011608716067854   0.0010897953403540   0.2205731909463685 Cl
   0.0006319831142059   0.0007489597050693   0.7805881322080572 Cl
   0.2301606308531787   0.4993228576215290   0.5032120495998634 Cl
   0.7714311326649832   0.4989300538456014   0.5036466586332675 Cl
   0.0006219357868376   0.4986640154452789   0.7278417396624932 Cl
   0.0021236174084328   0.4981971293927791   0.2609592102565664 Br
   0.0003235104154716   0.7441421517844153   0.5018519581832522 Br
   0.0028835011220972   0.2546790928660990   0.5002223294474577 Br
   0.4979380452863234   0.2445778894637333   0.4977989630452714 Br
   0.4992215000278120   0.7569943309364759   0.4998066126813122 Br
   0.4988590130500379   0.0008970202579479   0.7397638372852039 Br
   0.4983282953323302   0.0014440625343076   0.2588612694798896 Br
   0.7447447392022094   0.0007161015736172   0.4994007935527910 Br
   0.2537282843945398   0.0023937908307477   0.4977145114847816 Br
   0.4985957444543662   0.4987838924521865   0.2417492361393344 Br
   0.4992176945418229   0.4991452532482869   0.7587554031630527 Br
   0.4992580669337704   0.7626015483421739   -0.0001651196599383 I
   0.4977074023150496   0.2360760966759943   0.0023144195523218 I
   0.7640725974226931   0.4991632704340230   -0.0009396087638601 I
   0.2346156556807732   0.4978824320456476   0.0011853219716830 I
