Random_composition
1.0
  11.1840581859999997  0.0057063520000000  0.0058716320000000
  0.0057712630000000  11.2228264010000007  0.0094362760000000
  0.0057064180000000  0.0091424470000000  11.3785651229999996
Cs Rb Zr Te Cl Br I
7 1 1 3 9 11 4
Direct
   0.7580573857917512   0.2437620111632104   0.2532717200479741 Cs
   0.2406019606675311   0.7538704619184712   0.7470338704569870 Cs
   0.2425960378190443   0.7566490215120727   0.2532195918547849 Cs
   0.7587856036178896   0.2456747725793366   0.7464936346006413 Cs
   0.2410142652043029   0.2460115904307058   0.7469899172506997 Cs
   0.7573353317660436   0.7560871552773629   0.2530493544158643 Cs
   0.7588673655319370   0.7542033891519984   0.7466193889052293 Cs
   0.2447847286252256   0.2449338821882814   0.2540602808166758 Rb
   0.0009477380211740   0.0009852215797744   0.0008335970577860 Zr
   0.0013623623663343   0.4987729807329889   0.5020154456606870 Te
   0.4985725737707002   0.0012601110165536   0.4990963810618763 Te
   0.4989449164243752   0.4989875693147201   0.0002163536976105 Te
   0.2225159745119940   0.0005856111593166   0.0008786645756245 Cl
   0.7790506038777651   0.0007253784799986   0.0014948156019013 Cl
   0.0007919976620832   0.2221414683504191   0.0000377166602418 Cl
   0.0005657762010018   0.7794382696430580   0.0006979512132849 Cl
   0.0017472414761491   0.0016941353594321   0.2206239299398000 Cl
   0.0006079831094629   0.0007339815966340   0.7808831261275363 Cl
   0.2304920716376103   0.4993612393317482   0.5031728045678989 Cl
   0.7716557072098489   0.4982849446265912   0.5032820136360547 Cl
   0.0008510901599947   0.4981343989073983   0.7283892458712256 Cl
   0.0026325335780173   0.4979130196712852   0.2618112271495756 Br
   0.0002086774205442   0.7440749222333417   0.5015208347190568 Br
   0.0034058793045304   0.2542338678894128   0.4996474440781856 Br
   0.4976930052918547   0.2450294148309511   0.4973944872185523 Br
   0.4988734606902901   0.7570245625749584   0.4996479999416729 Br
   0.4983766445217016   0.0012863414404042   0.7393754385135501 Br
   0.4980252797667921   0.0016049157923900   0.2588367340315075 Br
   0.7445415153104756   0.0008871652941304   0.4993063618533725 Br
   0.2533996369730702   0.0026995818347440   0.4973585505209472 Br
   0.4984052219682892   0.4987172349955999   0.2416172412562944 Br
   0.4989129015522795   0.4987883515972032   0.7588719464316922 Br
   0.4992015815190697   0.7629072245610651   -0.0004332823216773 I
   0.4976079749073374   0.2356785254943601   0.0023293184325734 I
   0.7641684884719058   0.4991013539194326   -0.0009260020190562 I
   0.2343970292140570   0.4977543560131652   0.0012819506907364 I
