Random_composition
1.0
  11.1875209069999997  0.0069700520000000  0.0069262050000000
  0.0070367630000000  11.2319825110000000  0.0104399340000000
  0.0067850130000000  0.0101729130000000  11.3720768820000000
Cs Rb Zr Te Cl Br I
7 1 1 3 9 11 4
Direct
   0.7582836225561118   0.2436973144497398   0.2536883823630837 Cs
   0.2403854086193251   0.7541124530525990   0.7467494500132985 Cs
   0.2421586550072093   0.7565593534992588   0.2536849125916137 Cs
   0.7590679891501433   0.2454212019969143   0.7463553444473767 Cs
   0.2406651342631111   0.2456617355367267   0.7465152143911097 Cs
   0.7577727666910110   0.7561406566715255   0.2535805448597137 Cs
   0.7592850366881010   0.7544621320189780   0.7463222935779206 Cs
   0.2446217865021890   0.2452836951375512   0.2538898552770712 Rb
   0.0007534992949165   0.0007823813006635   0.0006935068397891 Zr
   0.0010818766885694   0.4990488166132640   0.5018109294551680 Te
   0.4988500311874895   0.0010188560681042   0.4992882377199560 Te
   0.4990736308142261   0.4991059752965838   0.0001813811411220 Te
   0.2222004205055431   0.0004445985065771   0.0007400893297467 Cl
   0.7790678755306105   0.0006275564972621   0.0010963225685259 Cl
   0.0006211702882411   0.2217360254409269   0.0000501920785570 Cl
   0.0005391529636125   0.7795108087401417   0.0004395172818806 Cl
   0.0012295113833795   0.0011598544810418   0.2205823440499562 Cl
   0.0006291192784626   0.0007482683114365   0.7806100787772638 Cl
   0.2302272570398781   0.4993238218467358   0.5031862297847984 Cl
   0.7714285239412806   0.4988638566028494   0.5035912860584911 Cl
   0.0006473921129722   0.4986003765062729   0.7278916812555549 Cl
   0.0021821682584845   0.4981612757302430   0.2610907528874476 Br
   0.0003109751198388   0.7441414030684951   0.5017842491040475 Br
   0.0029438954866135   0.2546239466580365   0.5001286406866231 Br
   0.4979084230189920   0.2446946448126388   0.4977513647668414 Br
   0.4991840983215342   0.7569363941291678   0.4997899892500373 Br
   0.4988025649541064   0.0009390885285570   0.7397580472282937 Br
   0.4982948084367052   0.0014649145647124   0.2588210970551685 Br
   0.7447437679748794   0.0007352994619464   0.4993875907136767 Br
   0.2536689043727384   0.0024340454081008   0.4976705385144595 Br
   0.4985698033232289   0.4987699889430114   0.2417350591360193 Br
   0.4991802681039448   0.4991035033755434   0.7587665874080175 Br
   0.4992486709086083   0.7626197938801068   -0.0001943003884708 I
   0.4976941109276191   0.2360480424873228   0.0023160714484542 I
   0.7640516657580648   0.4991526754945379   -0.0009438117212087 I
   0.2346228968567819   0.4978660320999593   0.0011895158063979 I
