Random_composition
1.0
  11.1826029200000008  0.0061472250000000  0.0060721660000000
  0.0062129540000000  11.2228837190000004  0.0095932650000000
  0.0059117530000000  0.0093046260000000  11.3751521699999998
Cs Rb Zr Te Cl Br I
7 1 1 3 9 11 4
Direct
   0.7581676406835761   0.2437146717295947   0.2534171163355656 Cs
   0.2405173118743818   0.7539890293858801   0.7469707829315512 Cs
   0.2424078849248430   0.7566337161620746   0.2533846957175211 Cs
   0.7589012515715143   0.2455464298087734   0.7464925397698562 Cs
   0.2408730260979765   0.2458477044394063   0.7468435384299815 Cs
   0.7575244548805758   0.7561244773395719   0.2532332262660888 Cs
   0.7590477826419534   0.7543299730979813   0.7465521622584583 Cs
   0.2447083207677558   0.2450780720103545   0.2539617007659101 Rb
   0.0008870796671484   0.0009130911410544   0.0007556693617155 Zr
   0.0012603057092783   0.4988942894246865   0.5018637321745020 Te
   0.4986953287223668   0.0011627911457382   0.4991643715494113 Te
   0.4989963691361360   0.4990357839942425   0.0002129754975285 Te
   0.2224581980656399   0.0005341453953900   0.0008434236792243 Cl
   0.7789374389127164   0.0006762563446585   0.0013058001193302 Cl
   0.0007297309561653   0.2220164671195484   0.0000558855072492 Cl
   0.0005485676736399   0.7793853748132374   0.0005582183405917 Cl
   0.0015395844657660   0.0014753530898651   0.2206235539031381 Cl
   0.0006205928814944   0.0007432757457220   0.7807393666906708 Cl
   0.2303983551608159   0.4993344365313016   0.5031230044079548 Cl
   0.7715383167813605   0.4985539844068343   0.5033824818517503 Cl
   0.0007653714134030   0.4983210676806957   0.7282289241217582 Cl
   0.0024429441095260   0.4980092114424233   0.2617527736949852 Br
   0.0002541425447416   0.7440878752267476   0.5015502332953796 Br
   0.0032116576965246   0.2544346137685128   0.4997699858995625 Br
   0.4977782385864076   0.2450146203796399   0.4975429632183935 Br
   0.4990120350397255   0.7568672217189951   0.4997127953374427 Br
   0.4985512465217492   0.0011310433449846   0.7396025774372633 Br
   0.4981398809627925   0.0015530713809306   0.2587833788008352 Br
   0.7446623128133262   0.0008203115006546   0.4993357743676712 Br
   0.2534823805190567   0.0026065397670784   0.4974830862135794 Br
   0.4984593364317526   0.4987191722083688   0.2416626068735361 Br
   0.4990174678179675   0.4989200547596008   0.7588341221108593 Br
   0.4992123129449471   0.7627392821255593   -0.0003268932175336 I
   0.4976373377017009   0.2358831632386961   0.0023213204877672 I
   0.7640354169784518   0.4991116653972048   -0.0009544892402542 I
   0.2345831331505935   0.4977933272154341   0.0012184548183939 I
