Random_composition
1.0
  10.8922640590000004  0.0119704580000000  0.0337755380000000
  0.0117447030000000  10.9307747509999995  0.0356698740000000
  0.0338564580000000  0.0355797270000000  11.0238865250000000
Cs Rb Hf Pd Sn Cl Br I
5 3 2 1 1 13 8 3
Direct
   0.7640753712867647   0.2495830693152466   0.2607483613069241 Cs
   0.2397477056031293   0.7541436143278717   0.7477891001384386 Cs
   0.2430369863899249   0.7590085740567040   0.2532053961639685 Cs
   0.7582626310646252   0.2479343946062746   0.7352003728172106 Cs
   0.2435342625962185   0.2445333769776559   0.7410264978678917 Cs
   0.7544063763678687   0.7615568515544766   0.2499458676012415 Rb
   0.7496002658360965   0.7633411279449238   0.7464085871369789 Rb
   0.2669943938331877   0.2556027051998920   0.2807317362527696 Rb
   -0.0045372894490668   -0.0038792267398132   0.0002042492832382 Hf
   -0.0012085806429671   0.5060048406739370   0.4980232406330219 Hf
   0.5041354501656615   -0.0012462539365048   0.4988174538259472 Pd
   0.4984963602828557   0.5005906995166096   0.0010846456044299 Sn
   0.2205696760207236   0.0060218912883778   -0.0060218924992594 Cl
   0.7700851351917377   -0.0209585067286016   0.0051839745826242 Cl
   -0.0191094105461021   0.2199120817554863   -0.0073267087285478 Cl
   0.0082965827839469   0.7712983586667340   0.0053980656502505 Cl
   -0.0012869084269459   0.0007730826096325   0.2244259213531046 Cl
   -0.0093417818513735   -0.0088393173652394   0.7749472748717877 Cl
   0.2254183013077832   0.5086943430330508   0.4923691204702220 Cl
   0.7734816509449270   0.4979113343393977   0.5040631354418943 Cl
   0.0036939983253029   0.5001167042562126   0.7209931012414043 Cl
   -0.0064368883855091   0.5106689992608772   0.2754166512530321 Cl
   -0.0069913547490379   0.7310848521169495   0.5016858999471312 Cl
   0.0076563704926726   0.2783775433766513   0.4937116957552145 Cl
   0.5047988758461169   0.2159578487645096   0.4988999972613344 Cl
   0.5043033274979121   0.7712341846610919   0.4984890805202854 Br
   0.5039589254693396   -0.0025498023519327   0.7267817433644157 Br
   0.5045900183524586   0.0015825677303176   0.2712537673431085 Br
   0.7340504241705615   -0.0058030686816422   0.4978991786867289 Br
   0.2735714401717477   0.0012911663801961   0.4986484493666057 Br
   0.5037821431755999   0.5008362157801729   0.2448482861508714 Br
   0.4950757432108902   0.5022702183884231   0.7577656587877871 Br
   0.4889545580451133   0.7441658017775239   0.0002314062607752 Br
   0.5077047539619446   0.2362584087619956   0.0023915967438532 I
   0.7607152904685900   0.5139837279530781   -0.0046786859514176 I
   0.2359153859381613   0.4885390345498262   0.0094391125012952 I
