Random_composition
1.0
  10.8656600999999995  0.0045244080000000  0.0176388250000000
  0.0042589050000000  10.9517228089999996  0.0230535360000000
  0.0175304380000000  0.0230212570000000  11.0030371969999994
Cs Rb Hf Pd Sn Cl Br I
5 3 2 1 1 13 8 3
Direct
   0.7587997401192074   0.2481693684027455   0.2625724544031478 Cs
   0.2417988472880352   0.7563978978754530   0.7469571500239371 Cs
   0.2430314607446395   0.7574839339907207   0.2530856233233503 Cs
   0.7565662667030979   0.2475152276264443   0.7366592345084558 Cs
   0.2449650403893550   0.2473783592004440   0.7381203946876019 Cs
   0.7525462877535538   0.7602594552337265   0.2521303208682904 Rb
   0.7515566188381455   0.7602498097638739   0.7468953190674502 Rb
   0.2507883581684240   0.2480922001218827   0.2688091417502277 Rb
   -0.0024983552043011   -0.0023496956173108   0.0014994257083160 Hf
   -0.0015455845298072   0.5039605206508573   0.4978470118944233 Hf
   0.5032637805047470   -0.0017793661866488   0.4982418891053104 Pd
   0.5006288264450988   0.5032834130201912   0.0019337418459257 Sn
   0.2237267983366588   -0.0017683716479259   -0.0006739512455930 Cl
   0.7713822140425698   -0.0087845834477113   0.0028788632867463 Cl
   -0.0051985388550265   0.2215847011416916   -0.0004650184013824 Cl
   0.0005646826449700   0.7730280594056436   0.0029718166793112 Cl
   -0.0016849854685723   -0.0010454697973601   0.2266305001331187 Cl
   -0.0043915171998241   -0.0033657969298387   0.7758544210912626 Cl
   0.2253876423116463   0.5031859774588513   0.4963633325045151 Cl
   0.7723027896669009   0.4999104133069416   0.4997777145600708 Cl
   -0.0004944436947306   0.5015388727046430   0.7213995858445981 Cl
   -0.0022378587381743   0.5045374515064996   0.2747812305607171 Cl
   -0.0042297288327149   0.7289342575768971   0.4988086468338416 Cl
   0.0024542417340218   0.2767361923536981   0.4965335356474317 Cl
   0.5048731233076030   0.2149568868804716   0.4976925022568954 Cl
   0.5020035777664585   0.7709002391487341   0.4983654214876121 Br
   0.5027686452126302   -0.0026107639517765   0.7266168237050228 Br
   0.5040590190100144   -0.0003791293641401   0.2702524474112669 Br
   0.7340027932891378   -0.0074826250712998   0.4989609192308284 Br
   0.2720739162862063   0.0018729287463205   0.4968117130117237 Br
   0.5017429122242713   0.5031035616933758   0.2458231740998321 Br
   0.5003070370570911   0.5049518441753295   0.7577248078814359 Br
   0.4974517656979424   0.7466556162280180   0.0010417562919558 Br
   0.5024814649623397   0.2386026041846943   0.0029097587398186 I
   0.7636057255763210   0.5094877334791681   -0.0005775315900497 I
   0.2371453399086750   0.4967873460929385   0.0047672591615512 I
