Random_composition
1.0
  10.8831553969999995  0.0000518260000000  0.0226697200000000
  -0.0002473890000000  10.9426466290000004  0.0318816060000000
  0.0226486960000000  0.0318692090000000  10.9988710390000008
Cs Rb Hf Pd Sn Cl Br I
5 3 2 1 1 13 8 3
Direct
   0.7608856318391338   0.2483544952612879   0.2624817570249843 Cs
   0.2408479608829800   0.7557569850384350   0.7466734784520340 Cs
   0.2426297618484999   0.7582440127760505   0.2538856583067937 Cs
   0.7576857222082700   0.2473614235030936   0.7355716026398094 Cs
   0.2445783664806540   0.2460117321547763   0.7376359081791294 Cs
   0.7531635845188381   0.7615058804542862   0.2504364268123895 Rb
   0.7508683368334280   0.7618382127293916   0.7475784896611276 Rb
   0.2554160644660264   0.2507512014794018   0.2728330414717084 Rb
   -0.0031380983985495   -0.0025610398284701   0.0014031249043713 Hf
   -0.0015470816388903   0.5048768619650065   0.4976900599439682 Hf
   0.5037490512700932   -0.0019111310977746   0.4984976240329310 Pd
   0.4997434344768980   0.5017789444802527   0.0017077605142339 Sn
   0.2225388021385613   0.0006598645137642   -0.0019516484735518 Cl
   0.7710416839508428   -0.0132424056664894   0.0039852172028414 Cl
   -0.0090292490081383   0.2214198081415370   -0.0021415405684292 Cl
   0.0017144638483057   0.7728532369086353   0.0040805398145430 Cl
   -0.0015194621341180   -0.0010607335950409   0.2267803899897766 Cl
   -0.0062298094347688   -0.0050789120948590   0.7752643995619682 Cl
   0.2253306885723964   0.5051565982210295   0.4947777452298096 Cl
   0.7727430501577853   0.4993437449901714   0.5007279593838535 Cl
   0.0003779450842248   0.5015825568663720   0.7210503829452417 Cl
   -0.0033689782696663   0.5067323655422682   0.2750919545687741 Cl
   -0.0053870884219518   0.7302691284187569   0.4993303359668503 Cl
   0.0045934237128770   0.2768764689769702   0.4957262052207604 Cl
   0.5056377915577576   0.2150976614964064   0.4975364884763803 Cl
   0.5028160300673313   0.7700477042233684   0.4987267260820920 Br
   0.5033857882043937   -0.0027421343110798   0.7273515418453785 Br
   0.5045578408344610   0.0003595259725825   0.2701568499369577 Br
   0.7340801285174335   -0.0075196027635247   0.4984846468879058 Br
   0.2727988511085013   0.0016508298773830   0.4970758431420249 Br
   0.5021444300228599   0.5023271609803801   0.2458599178182752 Br
   0.4990353969193664   0.5044661783906326   0.7574399032229596 Br
   0.4952598987621323   0.7461275719428543   0.0010660049974076 Br
   0.5039645223985174   0.2380222051284509   0.0028554508106125 I
   0.7622792004251127   0.5104169362507144   -0.0016213998354467 I
   0.2363521742196471   0.4942257773415001   0.0059529064981888 I
