Random_composition
1.0
  10.8901299050000002  0.0115499410000000  0.0350725220000000
  0.0113258720000000  10.9304815350000002  0.0353742660000000
  0.0351472080000000  0.0352629290000000  11.0284925010000006
Cs Rb Hf Pd Sn Cl Br I
5 3 2 1 1 13 8 3
Direct
   0.7641304355807628   0.2497128866661306   0.2606772057151048 Cs
   0.2397732352840087   0.7540863063259763   0.7479295377492099 Cs
   0.2430932727450023   0.7590568880303008   0.2530983291981370 Cs
   0.7581454814199078   0.2480137893432411   0.7351436852709161 Cs
   0.2434050599518886   0.2444653867019635   0.7414100690843765 Cs
   0.7544611756500622   0.7613882907956403   0.2502731530751555 Rb
   0.7495442915512673   0.7633008851737522   0.7460122389391306 Rb
   0.2675819481102841   0.2556634568408482   0.2811663805210154 Rb
   -0.0046029202845736   -0.0039484041988600   0.0000318364385086 Hf
   -0.0011758105317711   0.5059412456988804   0.4980339731778378 Hf
   0.5040637668144012   -0.0011777223812220   0.4988571985713305 Pd
   0.4984406668276238   0.5005750168295698   0.0010510008460049 Sn
   0.2205545491010457   0.0064383206304472   -0.0062767558789966 Cl
   0.7700299415868422   -0.0217203880440169   0.0051186914904472 Cl
   -0.0194882878313702   0.2198701132486533   -0.0076886519585620 Cl
   0.0085787472588126   0.7713731924803682   0.0054016776269795 Cl
   -0.0012743873786733   0.0008352783536293   0.2241652835504530 Cl
   -0.0094974036651864   -0.0091974076740098   0.7748020365131281 Cl
   0.2255060764093408   0.5087059020818251   0.4921584554539823 Cl
   0.7734638363402143   0.4980101018842725   0.5043913236795166 Cl
   0.0038626968242881   0.4999834590836254   0.7210240181858402 Cl
   -0.0066337617805138   0.5108821938456828   0.2755934757049194 Cl
   -0.0071386264505577   0.7310522943407740   0.5019108396556832 Cl
   0.0077997276048160   0.2783917493349510   0.4935505500498146 Cl
   0.5046822741079453   0.2159808692000637   0.4989956111065360 Cl
   0.5044023254187815   0.7713053660396593   0.4984022047130178 Br
   0.5039496244292163   -0.0025567736303666   0.7267172425400933 Br
   0.5045662491621441   0.0017696318136106   0.2713717209698365 Br
   0.7340285164119067   -0.0055599259462690   0.4978225670018869 Br
   0.2734719917748853   0.0013416070156105   0.4987391693551874 Br
   0.5041327414875980   0.5009673071512873   0.2448292404703502 Br
   0.4948986295077106   0.5021300911479271   0.7577436510710965 Br
   0.4886421280797330   0.7441383469560379   0.0001630993888431 Br
   0.5081204671255576   0.2362269508151079   0.0024647592353281 I
   0.7607390254437002   0.5143869234905646   -0.0049133728893315 I
   0.2357415024321703   0.4881661011145217   0.0098303039555766 I
