Random_composition
1.0
  10.8655284190000003  0.0114815520000000  0.0128632420000000
  0.0112725010000000  10.9501462860000007  0.0186121010000000
  0.0127079000000000  0.0185677200000000  11.0045078370000002
Cs Rb Hf Pd Sn Cl Br I
5 3 2 1 1 13 8 3
Direct
   0.7583948176106343   0.2476894772173146   0.2626300608052284 Cs
   0.2420372396892289   0.7568840978759626   0.7464267857141338 Cs
   0.2428479696089720   0.7573748597905131   0.2534624802605272 Cs
   0.7567229971661374   0.2471403168672965   0.7372484447821999 Cs
   0.2441722502362681   0.2475357364456246   0.7380549965005846 Cs
   0.7526681747927352   0.7592627245031524   0.2536821104549280 Rb
   0.7522932420659164   0.7592432172439858   0.7458218104887913 Rb
   0.2482683287936739   0.2465194743753021   0.2663325123179019 Rb
   -0.0019185546002035   -0.0018211887622016   0.0013093338834154 Hf
   -0.0013328503883771   0.5031097390635827   0.4981797729351338 Hf
   0.5026044200740728   -0.0014451791726933   0.4984050042741627 Pd
   0.5007599879489629   0.5035886336295660   0.0016852875979764 Sn
   0.2243541387162630   -0.0024728691746513   0.0001263212977282 Cl
   0.7720766563606518   -0.0067406734542540   0.0019777394449795 Cl
   -0.0029615428349016   0.2222279581976840   0.0002882424081261 Cl
   -0.0001434711638739   0.7736966612800165   0.0021556370764203 Cl
   -0.0013931933805822   -0.0010457752353094   0.2265969021053195 Cl
   -0.0033690265472558   -0.0026439980764711   0.7755851214232750 Cl
   0.2254846183770250   0.5013666868270563   0.4972351449444725 Cl
   0.7724109958004473   0.5010193735357494   0.4995815668166309 Cl
   -0.0008505430873332   0.5013550574052311   0.7216042541291051 Cl
   -0.0015110514808173   0.5029956407285435   0.2752896972972616 Cl
   -0.0040338600009056   0.7284262997461457   0.4988105261917725 Cl
   0.0018798018003556   0.2757560673185186   0.4970529805510497 Cl
   0.5033854575950634   0.2151759527096908   0.4977560137726557 Cl
   0.5022756658752309   0.7712413825826017   0.4985606594421592 Br
   0.5024797730905374   -0.0020549977512953   0.7267062595944729 Br
   0.5033138497944823   0.0001505721585124   0.2704903293971746 Br
   0.7331872521266395   -0.0072061043808671   0.4992411325489006 Br
   0.2716076658487553   0.0024227196749083   0.4966892871468858 Br
   0.5016052580648159   0.5034338025040961   0.2454264933427771 Br
   0.5011711458874364   0.5050872707005023   0.7575661449338963 Br
   0.4991402311860688   0.7466130745753399   0.0008999403343694 Br
   0.5013439252764195   0.2391720875049467   0.0029323979947943 I
   0.7639640801738699   0.5088834512852819   0.0000146807987471 I
   0.2370637218286588   0.4980564170663736   0.0041747178809847 I
