Random_composition
1.0
  10.9199646060000006  0.0102901130000000  0.0076916710000000
  0.0101893450000000  10.9302872670000006  0.0150001850000000
  0.0075391870000000  0.0149495610000000  10.9828088719999997
Cs Rb Hf Pd Sn Cl Br I
5 3 2 1 1 13 8 3
Direct
   0.7571643379849204   0.2461879438042724   0.2617967142857017 Cs
   0.2436579106382621   0.7566809672976080   0.7446633738542018 Cs
   0.2438515141962061   0.7570084945381303   0.2555547619581035 Cs
   0.7564938947375736   0.2458869217646146   0.7385435768814880 Cs
   0.2435244921255135   0.2460631837838793   0.7380030000441660 Cs
   0.7528271719186836   0.7565836410093850   0.2553108807747107 Rb
   0.7529242564219587   0.7566938476470734   0.7445834942531827 Rb
   0.2465929693751859   0.2454886951960435   0.2615843492906141 Rb
   -0.0008759564922548   -0.0010120814647865   0.0007595433076891 Hf
   -0.0007063544733345   0.5015655986087217   0.4990910722531103 Hf
   0.5012337900423084   0.0001637993684134   0.4991366308438553 Pd
   0.5006409285031165   0.5035240111090878   0.0010877255089722 Sn
   0.2242422681044728   -0.0020561272039810   0.0004403285711562 Cl
   0.7742496996499559   -0.0034664251564129   0.0007964012812221 Cl
   -0.0008242737238371   0.2235166725328225   0.0004710587850537 Cl
   -0.0003531657667867   0.7743191040080529   0.0008957441343455 Cl
   -0.0007766898869669   -0.0004863198445379   0.2263349292427455 Cl
   -0.0013785104202022   -0.0008865852762851   0.7749268881196446 Cl
   0.2245691779346739   0.4998454662924020   0.4986515723917433 Cl
   0.7742337768772083   0.5011818628466598   0.4997680549502536 Cl
   -0.0006868281457237   0.5005413077164317   0.7228831133427961 Cl
   -0.0005624483295802   0.5008884744467678   0.2756517883239038 Cl
   -0.0021131652596946   0.7273887421904058   0.4992680244169301 Cl
   0.0005433696072546   0.2744950404768022   0.4986609899179364 Cl
   0.5007325604631080   0.2176677568360645   0.4987634344826150 Cl
   0.5023706209030383   0.7717950744239633   0.4995915822184673 Br
   0.5015295433196659   -0.0003416430485293   0.7280120793915731 Br
   0.5011698287847508   0.0013502711955127   0.2705132126826407 Br
   0.7309114470348334   -0.0042844120574711   0.4995928091384119 Br
   0.2713018507741365   0.0022250941101708   0.4974965805449609 Br
   0.5008413181775812   0.5032743248311730   0.2457156922997352 Br
   0.5012205151404741   0.5042654878108809   0.7562592409550229 Br
   0.5003993713018755   0.7472755305993217   0.0003088300544885 Br
   0.4999354915395702   0.2390708969409389   0.0021423074251623 I
   0.7634496508701031   0.5068924586057870   0.0002562473624963 I
   0.2376664829157345   0.5006901596988937   0.0024821976691248 I
