Random_composition
1.0
  10.8646445329999999  0.0096902220000000  0.0143405400000000
  0.0094644190000000  10.9530005819999996  0.0196063860000000
  0.0142007460000000  0.0195706250000000  11.0029514420000005
Cs Rb Hf Pd Sn Cl Br I
5 3 2 1 1 13 8 3
Direct
   0.7584219379335516   0.2479093949337963   0.2625862004210495 Cs
   0.2419889915602376   0.7567105911961948   0.7467072294697209 Cs
   0.2429510236007844   0.7573550732375964   0.2531954239649600 Cs
   0.7565596788703364   0.2473343766245975   0.7370841573876321 Cs
   0.2445707439204018   0.2475909387674897   0.7381654279546717 Cs
   0.7525709961393009   0.7596223487997801   0.2531033869614190 Rb
   0.7520074427347956   0.7595871208334914   0.7462564105802291 Rb
   0.2490958646364931   0.2470407708936310   0.2671605222992011 Rb
   -0.0021427627843025   -0.0020612262140573   0.0013988193670886 Hf
   -0.0014300739754572   0.5034581330739594   0.4980236023422016 Hf
   0.5028677263335801   -0.0016328968420730   0.4983090809191984 Pd
   0.5007720317766824   0.5033965064153442   0.0017975969934844 Sn
   0.2241586364297681   -0.0023198631843934   -0.0001371515421986 Cl
   0.7717681960828042   -0.0073681694625602   0.0022972827446513 Cl
   -0.0036891604629964   0.2219240567450987   0.0000728691604414 Cl
   0.0000999070318262   0.7734164966034138   0.0024370429197464 Cl
   -0.0015231806906532   -0.0010244501417685   0.2266439093314086 Cl
   -0.0037109790150078   -0.0028636029357753   0.7757036289161434 Cl
   0.2255031578832865   0.5020148724616313   0.4969506131514040 Cl
   0.7722753636144567   0.5005933044064219   0.4996123410776990 Cl
   -0.0007546590287620   0.5014407351892206   0.7213182229735541 Cl
   -0.0017574955483781   0.5035241106589945   0.2752673163493294 Cl
   -0.0040857402232530   0.7287270710270143   0.4987862498900862 Cl
   0.0020223498521481   0.2760026037007165   0.4968530138157353 Cl
   0.5039608527109249   0.2151552513012649   0.4977314079040290 Cl
   0.5021207749348648   0.7710872723220304   0.4984509030282953 Br
   0.5025771509313696   -0.0023054975800544   0.7267030139038816 Br
   0.5036154846244086   -0.0001277670273062   0.2702666100748734 Br
   0.7335933757219963   -0.0073785932374272   0.4991692066761076 Br
   0.2717405970287165   0.0022327708017243   0.4967257508444522 Br
   0.5016327152711451   0.5033338644180879   0.2454166749878758 Br
   0.5008970328331174   0.5050867458798853   0.7578079376533133 Br
   0.4986036344323010   0.7464949540663218   0.0009582598337710 Br
   0.5016881605541675   0.2392650925498622   0.0029550614011687 I
   0.7637768030372883   0.5091775800173355   -0.0001786887801658 I
   0.2372528611418256   0.4975983306791232   0.0044025969909784 I
