Random_composition
1.0
  10.9023780949999995  0.0094975570000000  0.0307196380000000
  0.0092557080000000  10.9299096549999994  0.0381285250000000
  0.0307994040000000  0.0380649800000000  11.0191671079999995
Cs Rb Hf Pd Sn Cl Br I
5 3 2 1 1 13 8 3
Direct
   0.7638597654384348   0.2491430575737907   0.2612398032455438 Cs
   0.2397186565862354   0.7544665236310042   0.7472043170996348 Cs
   0.2426746266234175   0.7589245278257707   0.2537413602209639 Cs
   0.7586718015471760   0.2476207233701231   0.7351202123137933 Cs
   0.2437936638904246   0.2446431010922616   0.7394608672725212 Cs
   0.7542567935160054   0.7620559096071849   0.2491570741812270 Rb
   0.7498862997559298   0.7633838978191398   0.7474291824032971 Rb
   0.2643519399251029   0.2549825787575790   0.2790689227536652 Rb
   -0.0042918117750504   -0.0037631698568454   0.0008372072888669 Hf
   -0.0013671872881355   0.5060109566325430   0.4978051874815376 Hf
   0.5042792279768824   -0.0013479005609317   0.4987001344354116 Pd
   0.4986669649213207   0.5010406008264058   0.0011922128189612 Sn
   0.2205894534407195   0.0047094897326067   -0.0049746041162700 Cl
   0.7703642100021837   -0.0185952679685291   0.0052021808833972 Cl
   -0.0170954527676242   0.2197482328280914   -0.0059363388564217 Cl
   0.0068210707964200   0.7716619329420066   0.0052543107210525 Cl
   -0.0012667976984493   0.0004562139456160   0.2255525754752793 Cl
   -0.0087309925384618   -0.0076191753519050   0.7749858621027863 Cl
   0.2252106672274910   0.5082462114989087   0.4929957843641173 Cl
   0.7734945149563687   0.4978922337338278   0.5029966945505668 Cl
   0.0029364219235016   0.5006219017842559   0.7208713455045795 Cl
   -0.0057036074998327   0.5097938462289332   0.2751476128486809 Cl
   -0.0065798679535830   0.7310474651167280   0.5009787323765971 Cl
   0.0071552214266313   0.2784237677102726   0.4942972779354486 Cl
   0.5051649456374422   0.2158359411402046   0.4984852263175303 Cl
   0.5039790526293921   0.7708777423853513   0.4988666984349684 Br
   0.5039352331240748   -0.0026679753287357   0.7270350780151726 Br
   0.5046074324287479   0.0011438375040475   0.2707323521158829 Br
   0.7342865397359193   -0.0067398738052933   0.4981556147535577 Br
   0.2736818142422615   0.0011641285182770   0.4982761540343438 Br
   0.5028403485815625   0.5007453357401411   0.2454477928285339 Br
   0.4959257784587688   0.5028662072526656   0.7573287264876273 Br
   0.4904270701295295   0.7447392670249084   0.0005053420212619 Br
   0.5063512347999751   0.2359314875463033   0.0023921366729939 I
   0.7608865464805483   0.5127572298945433   -0.0038555396891180 I
   0.2362191852621853   0.4897964048962216   0.0083026436367113 I
