Random_composition
1.0
  10.8636886429999997  0.0106778190000000  0.0136155730000000
  0.0104602620000000  10.9511956309999992  0.0190437790000000
  0.0134688200000000  0.0190058340000000  11.0020129329999996
Cs Rb Hf Pd Sn Cl Br I
5 3 2 1 1 13 8 3
Direct
   0.7583842880582494   0.2478251029493427   0.2625996401264793 Cs
   0.2420161270613445   0.7567873070118205   0.7466099859682906 Cs
   0.2429125801595905   0.7573485878804090   0.2532736367306598 Cs
   0.7566090144444644   0.2472643765424818   0.7371686923093281 Cs
   0.2444195742409303   0.2475986386073590   0.7381419130431370 Cs
   0.7525992041183637   0.7594658138292757   0.2533527135856499 Rb
   0.7521273497974444   0.7594338908975291   0.7460768237564637 Rb
   0.2487134218536004   0.2467998900829833   0.2667815098527033 Rb
   -0.0020479205606605   -0.0019453569377565   0.0013601993244894 Hf
   -0.0013893906584614   0.5033265763038337   0.4981119101240362 Hf
   0.5027605053642289   -0.0014920472224640   0.4983372656661882 Pd
   0.5007525067240141   0.5035340400242735   0.0017508411260624 Sn
   0.2242530516536002   -0.0024101811407355   -0.0000088560919590 Cl
   0.7718920636341100   -0.0070771288037817   0.0021518809949178 Cl
   -0.0033437120718571   0.2220334867304395   0.0001869812293840 Cl
   -0.0000186367352746   0.7735352946737467   0.0023076884842781 Cl
   -0.0014683753517774   -0.0010302117937280   0.2266530340477938 Cl
   -0.0035602930419905   -0.0027680582838877   0.7756336264724906 Cl
   0.2255170386136393   0.5017127592332676   0.4970785785014032 Cl
   0.7723023876602225   0.5007935710027857   0.4995901833459461 Cl
   -0.0008082402823268   0.5014127405301293   0.7213372915997941 Cl
   -0.0016452136132189   0.5032815144022638   0.2753494326028701 Cl
   -0.0040778162163668   0.7286595756804995   0.4987931866012179 Cl
   0.0019599118743359   0.2758132190775388   0.4969291366935908 Cl
   0.5037033357862606   0.2150880819174345   0.4977357992498271 Cl
   0.5021903233752599   0.7711672555004450   0.4984902749710668 Br
   0.5025388689530697   -0.0022131767507208   0.7266670055089055 Br
   0.5034927499654414   -0.0000232948954206   0.2703855303067307 Br
   0.7333718085063560   -0.0073378940361639   0.4992099625118201 Br
   0.2717351108724535   0.0023283486644712   0.4967032727086372 Br
   0.5016187512229877   0.5033807184249930   0.2453500026366500 Br
   0.5010361097293330   0.5051026627515076   0.7577648829864899 Br
   0.4988784044333978   0.7464194377837762   0.0009355413336211 Br
   0.5015107667860179   0.2393153017851853   0.0029607469128053 I
   0.7638479245440104   0.5090846356148605   -0.0000877223537502 I
   0.2372136205083170   0.4977835498809632   0.0043165301666898 I
