Random_composition
1.0
  10.9478570360000003  0.0077087680000000  0.0064268170000000
  0.0076406070000000  10.9203720529999995  0.0092400420000000
  0.0063106000000000  0.0091851060000000  10.9498706840000004
Cs Rb Hf Pd Sn Cl Br I
5 3 2 1 1 13 8 3
Direct
   0.7553110870503189   0.2459610539836332   0.2603412538525905 Cs
   0.2453383050871436   0.7555264442974416   0.7445615016664698 Cs
   0.2454071558975995   0.7557508325974887   0.2556249041163398 Cs
   0.7550374752534826   0.2458701710058551   0.7398768346597728 Cs
   0.2449223862662685   0.2458506122959994   0.7394356054352214 Cs
   0.7522810201512420   0.7548067685265617   0.2547711166474489 Rb
   0.7523481301389807   0.7548768260655805   0.7451768096761600 Rb
   0.2473356917138867   0.2461734883500504   0.2588172817000681 Rb
   -0.0004960090124303   -0.0003324260747040   0.0004398462346302 Hf
   -0.0003644342976915   0.5009073178987463   0.4995624236448789 Hf
   0.5006030224351802   0.0008627577899449   0.4996492563205641 Pd
   0.5002515744614942   0.5031705553644692   0.0004361382659269 Sn
   0.2243413855286749   -0.0014738501721504   0.0006093055890534 Cl
   0.7748934422226054   -0.0032211693238195   0.0003150416558998 Cl
   0.0000535328172731   0.2250677313232376   0.0006776354605676 Cl
   -0.0008822274385002   0.7743365982270017   0.0003324940841416 Cl
   -0.0003232925654604   -0.0001886425283445   0.2267299671798609 Cl
   -0.0009369585890459   -0.0008022800462517   0.7739071701682493 Cl
   0.2250108603494199   0.4992753688110833   0.4989228392425590 Cl
   0.7744120891755613   0.5015651702898741   0.4999363618038017 Cl
   -0.0007146000859873   0.5006667192846200   0.7238522389740569 Cl
   -0.0001946669954134   0.5002733103635632   0.2755355557850090 Cl
   -0.0018616926407465   0.7274426608377557   0.4997054779847279 Cl
   0.0007556446294642   0.2733561831699444   0.4989546889334570 Cl
   0.4993646905960567   0.2170180363572147   0.4989397205146555 Cl
   0.5029097544671242   0.7736486794148854   0.4999145197895459 Br
   0.5014981265931463   0.0003234362178239   0.7285733507709347 Br
   0.5003532131599081   0.0018097297274057   0.2710879137433446 Br
   0.7291435145026979   -0.0030641926605982   0.4998663819228748 Br
   0.2717559529375662   0.0029781047781446   0.4978803963753348 Br
   0.5002697472659063   0.5026569417059324   0.2452577171121167 Br
   0.5014526153136093   0.5040227012249359   0.7554618957250633 Br
   0.5022205261538539   0.7487902490887526   0.0000423262746538 Br
   0.4983631466110385   0.2378515649473093   0.0022483692746510 I
   0.7609972598618001   0.5078840954998176   0.0000398488267495 I
   0.2391418761364447   0.5003596374399402   0.0025159872344648 I
