Random_composition
1.0
  10.8710563619999991  0.0148457800000000  0.0102010030000000
  0.0146669860000000  10.9489346820000009  0.0173217540000000
  0.0100335090000000  0.0172882570000000  10.9968332750000002
Cs Rb Hf Pd Sn Cl Br I
5 3 2 1 1 13 8 3
Direct
   0.7584542244251945   0.2471983572575610   0.2626920882409810 Cs
   0.2421441628530639   0.7571177147530521   0.7457533523317247 Cs
   0.2426994195183876   0.7574875449971500   0.2542353002601915 Cs
   0.7571216505958340   0.2466979859039719   0.7374835241327039 Cs
   0.2433703754091573   0.2471668224901987   0.7377020104157397 Cs
   0.7529285873795963   0.7585605239568376   0.2546560181827676 Rb
   0.7528162834415147   0.7585983103429977   0.7450436012468860 Rb
   0.2470649263331935   0.2457838801705857   0.2649473906874159 Rb
   -0.0015168734578227   -0.0014445959912637   0.0011167302677037 Hf
   -0.0011344887159715   0.5025839330167693   0.4984995044103482 Hf
   0.5021289441565029   -0.0010197117911592   0.4986194941044125 Pd
   0.5007856331509285   0.5035639618860809   0.0015339755328622 Sn
   0.2246353047659588   -0.0025191114627074   0.0003875779421810 Cl
   0.7726302341222532   -0.0055901726497474   0.0015118196160235 Cl
   -0.0019779251279056   0.2227935236047466   0.0004411271945458 Cl
   -0.0003568273197452   0.7739634584648657   0.0017320654853742 Cl
   -0.0012001337809449   -0.0010381712186559   0.2264361169479274 Cl
   -0.0026943032464955   -0.0020930268888663   0.7754635835826460 Cl
   0.2254411987985034   0.5005763810445616   0.4977396015603473 Cl
   0.7726980367854093   0.5013585118978602   0.4995932155022835 Cl
   -0.0008787711022571   0.5010515616061016   0.7220060242711276 Cl
   -0.0011341199441868   0.5021799053868442   0.2754386518946382 Cl
   -0.0035646130038500   0.7278779810779400   0.4988616360829293 Cl
   0.0014164937363063   0.2753671362127279   0.4975737625293755 Cl
   0.5025158106786920   0.2158603537359499   0.4979592413400441 Cl
   0.5023516271469194   0.7712446945748463   0.4988596318126128 Br
   0.5021799734534679   -0.0015230571698537   0.7271178386221269 Br
   0.5026794160293331   0.0006540107516340   0.2705079510406321 Br
   0.7329439940865675   -0.0064949932780917   0.4993060823497195 Br
   0.2709138999441189   0.0024047635544164   0.4967807199724241 Br
   0.5015088823490911   0.5035659816823038   0.2454653437790854 Br
   0.5013787339008917   0.5049061783189830   0.7572697853253050 Br
   0.4995900181655710   0.7473439709994232   0.0007446118443482 Br
   0.5009983420274015   0.2387497744257905   0.0026956623610195 I
   0.7637553319533729   0.5079523370243293   0.0002601025286361 I
   0.2373066330878834   0.4991111500494871   0.0035640945701376 I
