Random_composition
1.0
  10.8669203289999992  0.0125631500000000  0.0119024330000000
  0.0123641230000000  10.9489568009999996  0.0180920710000000
  0.0117394820000000  0.0180464160000000  11.0038115909999998
Cs Rb Hf Pd Sn Cl Br I
5 3 2 1 1 13 8 3
Direct
   0.7584141519908967   0.2475132397145663   0.2626648934653975 Cs
   0.2420649552058636   0.7569956737164943   0.7461853695613174 Cs
   0.2427722472912835   0.7574129082808644   0.2537236509722627 Cs
   0.7568722365693303   0.2469792284245543   0.7373429603079154 Cs
   0.2438600488677658   0.2474344659575405   0.7379343787404025 Cs
   0.7527609035147738   0.7590036007679691   0.2540845364013055 Rb
   0.7525005682618424   0.7590031305546727   0.7455072640998461 Rb
   0.2477432251999180   0.2461915929467746   0.2657840070138709 Rb
   -0.0017579937813474   -0.0016631967282829   0.0012387539502804 Hf
   -0.0012595242561892   0.5028719822334279   0.4982825224198801 Hf
   0.5024141637950037   -0.0013497027291270   0.4984885848537411 Pd
   0.5007743028628243   0.5036050212673964   0.0016111062484773 Sn
   0.2244534805963706   -0.0025303555253379   0.0002721090626319 Cl
   0.7723225185076660   -0.0063161088745866   0.0017731814378967 Cl
   -0.0025172747904484   0.2224517451234611   0.0003921685583219 Cl
   -0.0002762039721628   0.7738762681007839   0.0019749759373700 Cl
   -0.0013063244016712   -0.0010595385264983   0.2264855861148410 Cl
   -0.0031254756303837   -0.0024721168778980   0.7755759770967492 Cl
   0.2254213919473503   0.5009766034482828   0.4974288397652605 Cl
   0.7725691761787341   0.5012531009209332   0.4995756056881251 Cl
   -0.0008891031404413   0.5012682558497873   0.7218436571662379 Cl
   -0.0013514990464414   0.5026541882631026   0.2752893400448578 Cl
   -0.0039393517279563   0.7281230094975926   0.4988311176806154 Cl
   0.0017552591195856   0.2756860710827567   0.4972214701176077 Cl
   0.5030103577966670   0.2153517629674784   0.4977972176488928 Cl
   0.5023575795809462   0.7712816822183381   0.4986578145430282 Br
   0.5023926544816320   -0.0018547291116123   0.7267766986779475 Br
   0.5030844690721272   0.0003631736939215   0.2705967360150590 Br
   0.7330103780177710   -0.0070051468641983   0.4992753724714126 Br
   0.2714014784254340   0.0024994997954341   0.4966873883436321 Br
   0.5015839499832682   0.5034962205660116   0.2454868132675153 Br
   0.5013098661236028   0.5050512381991267   0.7573680902408764 Br
   0.4994142846638653   0.7469004195526585   0.0008508669418447 Br
   0.5011632673677581   0.2389900609488959   0.0028791035156422 I
   0.7640278819882760   0.5085953972649770   0.0001312877156215 I
   0.2369678524943749   0.4984192771292866   0.0039788094062560 I
