Random_composition
1.0
  10.8727557860000008  0.0153875930000000  0.0098208940000000
  0.0152141670000000  10.9491951830000005  0.0171582020000000
  0.0096521060000000  0.0171261780000000  10.9963512360000006
Cs Rb Hf Pd Sn Cl Br I
5 3 2 1 1 13 8 3
Direct
   0.7584622297200810   0.2471286801966237   0.2626935859930646 Cs
   0.2421652442535464   0.7571390588731877   0.7456610288190567 Cs
   0.2426891838342024   0.7575031270384004   0.2543479308322506 Cs
   0.7571740996406776   0.2466362206008948   0.7375139139593683 Cs
   0.2432695719068567   0.2471025003476650   0.7376520508138857 Cs
   0.7529647229363012   0.7584630932830305   0.2547700860203960 Rb
   0.7528817658925512   0.7585093404082512   0.7449499561893609 Rb
   0.2469315288291638   0.2457062640862051   0.2647686465658339 Rb
   -0.0014678127830333   -0.0014052294980245   0.0010929558530280 Hf
   -0.0011080394630876   0.5025199357613767   0.4985461473278184 Hf
   0.5020687841283635   -0.0009384762386560   0.4986477078236574 Pd
   0.5007832447520435   0.5035701726316363   0.0015206409593741 Sn
   0.2246931987843866   -0.0025083470353406   0.0004025290337076 Cl
   0.7726724175581060   -0.0054291285993172   0.0014609227943753 Cl
   -0.0018757992640000   0.2228731182319473   0.0004432670381413 Cl
   -0.0003643401448548   0.7739588751533839   0.0016827250266243 Cl
   -0.0011809582593024   -0.0010284228135691   0.2264705073987926 Cl
   -0.0025985792823868   -0.0020028465457109   0.7753944651843322 Cl
   0.2254792011035520   0.5005084651252276   0.4978076499956052 Cl
   0.7726927927019200   0.5013604927175968   0.4995992673818812 Cl
   -0.0008711330129982   0.5010000579800337   0.7220515355233736 Cl
   -0.0010905721322910   0.5020834095703005   0.2754573582475785 Cl
   -0.0034663822963079   0.7278744700548981   0.4988677524073632 Cl
   0.0013334873459993   0.2752628385019746   0.4976554287080626 Cl
   0.5024170032073908   0.2159729635941649   0.4980024728751594 Cl
   0.5023391247394393   0.7712471756504233   0.4989057959436157 Br
   0.5021287159561941   -0.0014522557135525   0.7272188195501840 Br
   0.5025900349883469   0.0007109625035357   0.2704562498846206 Br
   0.7329381532834589   -0.0063730220124976   0.4993121012460799 Br
   0.2708079522619193   0.0023677071890565   0.4968084122598002 Br
   0.5014891721141190   0.5035776087614730   0.2454581873329235 Br
   0.5013825205559010   0.5048687039618458   0.7572587631563455 Br
   0.4996094738858023   0.7474120008253302   0.0007201609023056 Br
   0.5009707525714506   0.2387103204828464   0.0026494406024597 I
   0.7636758907190764   0.5078039010430844   0.0002825499158517 I
   0.2374154869470108   0.4992656767925981   0.0034685929465213 I
