Random_composition
1.0
  10.8719280000000005  0.0163743120000000  0.0090379490000000
  0.0162159940000000  10.9419211000000001  0.0168600030000000
  0.0088637570000000  0.0168211950000000  10.9938665100000001
Cs Rb Hf Pd Sn Cl Br I
5 3 2 1 1 13 8 3
Direct
   0.7584511906927848   0.2469760405939936   0.2626765694678411 Cs
   0.2422462812543306   0.7571681117279360   0.7454670043860071 Cs
   0.2427048166954353   0.7575290753694381   0.2545896387968182 Cs
   0.7572562055384768   0.2464999783846454   0.7375894512893577 Cs
   0.2430891744159791   0.2469450238485896   0.7375584805601076 Cs
   0.7530278202536909   0.7582435056078405   0.2549803731595143 Rb
   0.7529963162509837   0.7583085325789657   0.7447788606596724 Rb
   0.2466935511804904   0.2455659654274104   0.2643774281512536 Rb
   -0.0013711619454594   -0.0013704523690119   0.0010601819034445 Hf
   -0.0010619875310282   0.5023642743054172   0.4986052659481729 Hf
   0.5019470977407885   -0.0008067877413470   0.4987023469119474 Pd
   0.5007703319611161   0.5036853252971982   0.0014946449612163 Sn
   0.2247353347417593   -0.0024691124546968   0.0004130014445209 Cl
   0.7728307224095156   -0.0050592100335972   0.0013617132451041 Cl
   -0.0016877597744797   0.2229517437423994   0.0004308117452678 Cl
   -0.0003509436123163   0.7740157420575200   0.0015793591873741 Cl
   -0.0011435405586005   -0.0009872953064068   0.2265969828537673 Cl
   -0.0023824767904618   -0.0017849282233368   0.7751860202092745 Cl
   0.2255277723808911   0.5004030707337275   0.4979562821907829 Cl
   0.7727223975829198   0.5013107854015961   0.4996162240134098 Cl
   -0.0008410016335874   0.5008778693748692   0.7221629252390822 Cl
   -0.0010044783532482   0.5018855473110493   0.2755088288397644 Cl
   -0.0032152354644252   0.7279097216346161   0.4988887662093017 Cl
   0.0011292517407630   0.2750419357119486   0.4978451012699380 Cl
   0.5022117954311475   0.2161026074386537   0.4981184317469006 Cl
   0.5022923905772898   0.7714706799677510   0.4990130909832383 Br
   0.5020060384326598   -0.0012964616343453   0.7274023880588304 Br
   0.5023874634729933   0.0008157530409014   0.2703639971819319 Br
   0.7327672293868982   -0.0060727767603042   0.4993274812999641 Br
   0.2707550198503892   0.0022562998311204   0.4968920519226113 Br
   0.5014316137782661   0.5035889934500792   0.2454266269517719 Br
   0.5013584021999486   0.5047699089351162   0.7572639087966551 Br
   0.4996156213359905   0.7473530409702638   0.0006616530203753 Br
   0.5009190987902067   0.2387245467483277   0.0025348517859762 I
   0.7634789366005672   0.5074715090088273   0.0003177903916651 I
   0.2377094029509680   0.4996099808094561   0.0032507370115440 I
