Random_composition
1.0
  10.8627254440000005  0.0102570320000000  0.0140094490000000
  0.0100350210000000  10.9517450059999994  0.0192697810000000
  0.0138671930000000  0.0192352040000000  11.0007067480000007
Cs Rb Hf Pd Sn Cl Br I
5 3 2 1 1 13 8 3
Direct
   0.7583797540538039   0.2478966062492766   0.2625839112314354 Cs
   0.2420056954376681   0.7567364565171385   0.7467054322899450 Cs
   0.2429472527236301   0.7573348545802158   0.2531748941101626 Cs
   0.7565482719086813   0.2473296516049275   0.7371267476811595 Cs
   0.2445489803252993   0.2476310823664913   0.7381873176723406 Cs
   0.7525631401219606   0.7595731054799765   0.2531801148302997 Rb
   0.7520405695892952   0.7595330961497191   0.7462100824623628 Rb
   0.2489457313100663   0.2469460755827075   0.2670159179738327 Rb
   -0.0021163245900595   -0.0020110925468056   0.0013870383243453 Hf
   -0.0014185176020871   0.5034406785987910   0.4980769696477061 Hf
   0.5028429734714469   -0.0015159792282938   0.4983020441475251 Pd
   0.5007493361765358   0.5035050989169296   0.0017855529807764 Sn
   0.2242001756474140   -0.0023766165273311   -0.0000795516203248 Cl
   0.7717954152624122   -0.0072535894630251   0.0022423419819230 Cl
   -0.0035441335971017   0.2219321007964814   0.0001339067037604 Cl
   0.0000474364287680   0.7734514986576743   0.0023875824572172 Cl
   -0.0015072821982484   -0.0010212812476991   0.2266818717363256 Cl
   -0.0036600185444934   -0.0028335590218341   0.7756588801402472 Cl
   0.2255347002883046   0.5018941584535315   0.4969970673560584 Cl
   0.7722461348064275   0.5006753937585039   0.4995945695005783 Cl
   -0.0007864482024893   0.5014429836861325   0.7211971469622858 Cl
   -0.0017151040791962   0.5034303269649237   0.2753816736424247 Cl
   -0.0041002663186135   0.7287813809234560   0.4987837700393360 Cl
   0.0020015058151730   0.2758420859883426   0.4968641259719525 Cl
   0.5038698644671498   0.2150422555163783   0.4977250434075078 Cl
   0.5021446591694827   0.7711284033336667   0.4984530430782122 Br
   0.5025696838568710   -0.0022957130833636   0.7266463597883571 Br
   0.5035856288737131   -0.0001146079862956   0.2703305632455495 Br
   0.7334680379301320   -0.0074066084258363   0.4991931306277383 Br
   0.2718018746617897   0.0022798000361955   0.4967106568171015 Br
   0.5016252232240372   0.5033523156587354   0.2453108768325421 Br
   0.5009665125912612   0.5051107194387014   0.7578693399642298 Br
   0.4987410822190204   0.7463181465527715   0.0009546227569387 Br
   0.5015975481641916   0.2393908794319153   0.0029752529233059 I
   0.7637873448599495   0.5091899528182916   -0.0001411017281369 I
   0.2372926837845964   0.4976404776454563   0.0043911939781747 I
