Random_composition
1.0
  10.7975931010000004  0.0043841560000000  0.0061322740000000
  0.0043451680000000  10.7473321819999992  0.0070414020000000
  0.0060351990000000  0.0069828030000000  10.7671486269999992
Cs Rb Hf Pd Sn Cl Br I
5 3 2 1 1 13 8 3
Direct
   0.7529174278672057   0.2472517003642671   0.2567645345289331 Cs
   0.2474858802915284   0.7533127871888441   0.7464369861534916 Cs
   0.2475056778941291   0.7533975547809770   0.2536388552740248 Cs
   0.7528538612466356   0.2472361417672660   0.7433158658837715 Cs
   0.2471273624664772   0.2472145815749354   0.7431581087295535 Cs
   0.7511621482413313   0.7526547643569688   0.2529094765439521 Rb
   0.7511841463781976   0.7526788880246021   0.7470718476191105 Rb
   0.2486492105403303   0.2477207674245605   0.2552710107958927 Rb
   -0.0002140155968583   -0.0000837854685818   0.0002017156486537 Hf
   -0.0001510163243427   0.5003511977113065   0.4998182841698794 Hf
   0.5002405474974669   0.0021387973324724   0.4998711835618670 Pd
   0.5000218994236657   0.5054107102719069   0.0001481291636120 Sn
   0.2264652466174492   -0.0006417002558242   0.0005308528491374 Cl
   0.7732546811659979   -0.0022759716290025   0.0000793354382000 Cl
   0.0003922443690330   0.2281221252962634   0.0005759458957591 Cl
   -0.0009626679625652   0.7718849171030904   0.0000873723747343 Cl
   -0.0000779682398576   -0.0000754092290995   0.2306795508405038 Cl
   -0.0006160227331889   -0.0006318613542368   0.7695369046947581 Cl
   0.2271216146283189   0.4993590599683264   0.4993077764955235 Cl
   0.7726642959588162   0.5011933262052823   0.4999933495519710 Cl
   -0.0005355556413764   0.5005711299784620   0.7286663195067423 Cl
   -0.0000351267518437   0.5000735763506280   0.2711394722466670 Cl
   -0.0012815921355675   0.7297713168204586   0.4999224430102529 Cl
   0.0006234234852166   0.2704523051956969   0.4992985608197699 Cl
   0.4993363828884964   0.2245184488227151   0.4992953282307638 Cl
   0.5021477755673025   0.7698531205093625   0.4999837964017426 Br
   0.5010546702323221   -0.0000938988188581   0.7350142856584242 Br
   0.5001027855177711   0.0008892011842920   0.2650698964358268 Br
   0.7329746612502072   -0.0022009803441034   0.4999699440416719 Br
   0.2671588750963224   0.0017433712538891   0.4986742190345864 Br
   0.5000812337359765   0.5015718555752766   0.2546571697644944 Br
   0.5010271284482256   0.5025710306049616   0.7454897334266063 Br
   0.5018968484495095   0.7599634591296542   -0.0000194087796789 Br
   0.4984936182872526   0.2275739719729269   0.0016402356218736 I
   0.7709645204246846   0.5060623426933124   -0.0000186822047746 I
   0.2289671786437729   0.5004603345882237   0.0018205347396714 I
