Random_composition
1.0
  10.8963760670000003  0.0051040170000000  0.0276497090000000
  0.0048346100000000  10.9329454720000001  0.0375227720000000
  0.0277180450000000  0.0375212570000000  11.0003581209999997
Cs Rb Hf Pd Sn Cl Br I
5 3 2 1 1 13 8 3
Direct
   0.7632811595727371   0.2487360802293344   0.2618834949860822 Cs
   0.2398810628626941   0.7549402067461480   0.7466575014031643 Cs
   0.2423791285599573   0.7588662635554373   0.2542402248252915 Cs
   0.7587681801083143   0.2473360715445899   0.7349287592890361 Cs
   0.2439248082400622   0.2447747105177631   0.7381533251066561 Cs
   0.7540175687761833   0.7622715570211185   0.2491418062630420 Rb
   0.7502185505897812   0.7632136877952331   0.7477691809407748 Rb
   0.2613334597156998   0.2538019360630572   0.2772674144021030 Rb
   -0.0039604684995656   -0.0033405105811954   0.0011149501573957 Hf
   -0.0014582733531421   0.5057789748594649   0.4976776238972240 Hf
   0.5042169300057486   -0.0018067678434061   0.4986443425945181 Pd
   0.4987997521266800   0.5012458956058293   0.0013345198752800 Sn
   0.2210825532841592   0.0036060898855673   -0.0038269825662771 Cl
   0.7705539438174800   -0.0171306751555922   0.0049523113250936 Cl
   -0.0143231640298108   0.2206865616556803   -0.0045584643397526 Cl
   0.0047162450911717   0.7717378479272443   0.0050136416721584 Cl
   -0.0012311095769921   -0.0001660199651094   0.2260417562773681 Cl
   -0.0080646884427805   -0.0067499946963041   0.7752535118397905 Cl
   0.2251162102363259   0.5072619444829292   0.4934222748300172 Cl
   0.7734306728199566   0.4984275124689359   0.5021575138095411 Cl
   0.0019683602150714   0.5010946757348146   0.7211695316537263 Cl
   -0.0048913551424353   0.5088805150428176   0.2748320194443158 Cl
   -0.0063968953268007   0.7309959310677366   0.5003562445964760 Cl
   0.0066794037900790   0.2779370174751282   0.4948035590496784 Cl
   0.5054502129851465   0.2154914205888462   0.4979636620008784 Cl
   0.5037390116710720   0.7706451539931942   0.4991160251435559 Br
   0.5038613923100601   -0.0027841190783966   0.7269720457305184 Br
   0.5046275200079339   0.0010524903814632   0.2707146140884965 Br
   0.7340168702425889   -0.0073560242142776   0.4982929287631072 Br
   0.2738043446688078   0.0013220405385610   0.4978165003980300 Br
   0.5024569215455970   0.5011440140872012   0.2456013586136656 Br
   0.4970961801827963   0.5035350213379024   0.7572209298869659 Br
   0.4922935436607525   0.7452162026758631   0.0007786700230365 Br
   0.5053592109102308   0.2363783452959344   0.0026405862247460 I
   0.7610695303597829   0.5118922475417303   -0.0030527158086048 I
   0.2361819931838433   0.4910618873302892   0.0075073586216787 I
