Random_composition
1.0
  10.8670342519999998  0.0121393970000000  0.0122474680000000
  0.0119373080000000  10.9492874110000002  0.0182587780000000
  0.0120850960000000  0.0182091300000000  11.0065498829999999
Cs Rb Hf Pd Sn Cl Br I
5 3 2 1 1 13 8 3
Direct
   0.7584038275008309   0.2475787346964643   0.2626546028472002 Cs
   0.2420536267302975   0.7569636482898076   0.7462778356577356 Cs
   0.2427951973875813   0.7573967274294049   0.2536178243462909 Cs
   0.7568173925852899   0.2470386214900950   0.7373128151983005 Cs
   0.2439697020015422   0.2474837141466024   0.7379835938628025 Cs
   0.7527250968876271   0.7590958042913695   0.2539515916798744 Rb
   0.7524286326634838   0.7590876630512744   0.7456137235113441 Rb
   0.2479044123100238   0.2462906943419485   0.2659649810930421 Rb
   -0.0018123437389385   -0.0017189323108676   0.0012677525994736 Hf
   -0.0012869079452763   0.5029316504638485   0.4982354054905877 Hf
   0.5024768245372534   -0.0014070580733056   0.4984597063250081 Pd
   0.5007657234352737   0.5036328941646284   0.0016309530969742 Sn
   0.2244372488014584   -0.0025233450133549   0.0002359763233094 Cl
   0.7722277119178886   -0.0064650597929090   0.0018352899060847 Cl
   -0.0026483022069693   0.2223875677309778   0.0003708618786782 Cl
   -0.0002467985630307   0.7738280762865539   0.0020309604590033 Cl
   -0.0013320337632739   -0.0010584367129790   0.2265510688006991 Cl
   -0.0032126707729493   -0.0025419935604937   0.7755460022911328 Cl
   0.2254587293610875   0.5010834326830917   0.4973628964990346 Cl
   0.7725005155959842   0.5012048084523686   0.4995741168463653 Cl
   -0.0008850211824091   0.5013072334444590   0.7218227025032014 Cl
   -0.0014012949431425   0.5027619544824909   0.2752395051677642 Cl
   -0.0039984703912593   0.7282350960726292   0.4988250038885657 Cl
   0.0018137995020801   0.2757097459786131   0.4971533969019655 Cl
   0.5031248412792015   0.2152485614118261   0.4977724970266044 Cl
   0.5023465235447997   0.7713015542996342   0.4986189642999287 Br
   0.5024305773491384   -0.0019263789653007   0.7267383290800434 Br
   0.5031682450839847   0.0002936155430284   0.2705763507744147 Br
   0.7330354219491614   -0.0070981636029240   0.4992674211569050 Br
   0.2715034932918247   0.0024997097445643   0.4966778133129849 Br
   0.5015952800727848   0.5034775880256444   0.2454878114461567 Br
   0.5012809718578513   0.5050742484757644   0.7574025128108099 Br
   0.4993547372712264   0.7467720939485731   0.0008703020525456 Br
   0.5012076934370390   0.2390541555826840   0.0029097799398502 I
   0.7640599901114271   0.5087192241099652   0.0000975426773227 I
   0.2369407109040134   0.4982798934336720   0.0040594096010274 I
