Random_composition
1.0
  10.8666816300000004  0.0134510230000000  0.0111794950000000
  0.0132584120000000  10.9482640880000002  0.0177427770000000
  0.0110153320000000  0.0177054870000000  10.9980741609999999
Cs Rb Hf Pd Sn Cl Br I
5 3 2 1 1 13 8 3
Direct
   0.7584354527872570   0.2473759532022479   0.2626870755718040 Cs
   0.2420881821324056   0.7570629877683073   0.7459916214881546 Cs
   0.2427245257221826   0.7574478293629143   0.2539460266922627 Cs
   0.7569886200665992   0.2468557210918266   0.7374043150440984 Cs
   0.2436303377013337   0.2473322936980833   0.7378308106796767 Cs
   0.7528367687233526   0.7588107020786883   0.2543627379742712 Rb
   0.7526501560470726   0.7588262772230270   0.7452833965232991 Rb
   0.2474071833472369   0.2459853876892064   0.2654055251875453 Rb
   -0.0016447049761763   -0.0015462497257427   0.0011789174673058 Hf
   -0.0012023430831710   0.5027483852070386   0.4983811900941271 Hf
   0.5022825548234009   -0.0012288033211537   0.4985487874337555 Pd
   0.5007928505550145   0.5035479595580580   0.0015690974095388 Sn
   0.2244880254208745   -0.0025443076547395   0.0003478318357909 Cl
   0.7725211615937815   -0.0060055462781636   0.0016439385969098 Cl
   -0.0022431820238299   0.2225871105263451   0.0004351456543225 Cl
   -0.0003388489493175   0.7739758177072334   0.0018586261125288 Cl
   -0.0012514578653084   -0.0010623361930488   0.2263462496269232 Cl
   -0.0029413860395928   -0.0023248905658084   0.7756398082380034 Cl
   0.2253438574106122   0.5007523739724025   0.4975667513840093 Cl
   0.7727133353358889   0.5013553654760450   0.4995780114092453 Cl
   -0.0008978629804530   0.5011863636583994   0.7218898039369993 Cl
   -0.0012464649052066   0.5024285837510447   0.2753918015272651 Cl
   -0.0038158462871537   0.7278888214283291   0.4988444167479816 Cl
   0.0016322274771015   0.2756347450806537   0.4973635517118843 Cl
   0.5027705891914933   0.2155686542086251   0.4978493881745495 Cl
   0.5023825110601282   0.7712393433826320   0.4987400165928242 Br
   0.5023121318747534   -0.0017049275727852   0.7268585878908215 Br
   0.5029099247729638   0.0005090763207583   0.2706418091940083 Br
   0.7329570044766506   -0.0068092277419350   0.4992916618906772 Br
   0.2711881641322423   0.0024997355213477   0.4967091348044156 Br
   0.5015597228584989   0.5035352671924607   0.2454846786906178 Br
   0.5013704065076533   0.5050031406448937   0.7572966550337610 Br
   0.4995393251004995   0.7471701732720125   0.0008081895718469 Br
   0.5010703699145416   0.2388534149158407   0.0028141620955880 I
   0.7639607332564042   0.5083354168313229   0.0002009463500583 I
   0.2370250631006038   0.4987123319534700   0.0038099068242127 I
