Random_composition
1.0
  10.9013151680000000  0.0086482780000000  0.0301791110000000
  0.0084011780000000  10.9303761769999994  0.0380959690000000
  0.0302574380000000  0.0380445860000000  11.0155113500000006
Cs Rb Hf Pd Sn Cl Br I
5 3 2 1 1 13 8 3
Direct
   0.7637665170265875   0.2490675009533103   0.2613579747897356 Cs
   0.2397422322387921   0.7545507582907716   0.7470973601479795 Cs
   0.2426150959667866   0.7589175700920733   0.2538408161927734 Cs
   0.7587000613922188   0.2475662922478990   0.7350808847232150 Cs
   0.2438144255936416   0.2446602345946449   0.7392122861980400 Cs
   0.7542171664752483   0.7621035804534168   0.2491418904524206 Rb
   0.7499470810059364   0.7633603683567071   0.7474983275169927 Rb
   0.2638117699857776   0.2547783758645594   0.2787516864754250 Rb
   -0.0042358090289580   -0.0036830483604393   0.0008867624876102 Hf
   -0.0013808298353683   0.5059774137877000   0.4977967702195248 Hf
   0.5042752495505252   -0.0014732706140842   0.4986856599208992 Pd
   0.4986924626689910   0.5010551109863605   0.0012175308447048 Sn
   0.2206702814410777   0.0045142918749808   -0.0047661527071403 Cl
   0.7703985892538721   -0.0183313905606956   0.0051616675559225 Cl
   -0.0166012442107269   0.2199064238400008   -0.0056871202364778 Cl
   0.0064413581003525   0.7716720615522867   0.0052142845464761 Cl
   -0.0012576910180983   0.0003463864863205   0.2256495119555202 Cl
   -0.0086143629201979   -0.0074609854130221   0.7750347610765947 Cl
   0.2251895774680777   0.5080725276979561   0.4930700256126208 Cl
   0.7734848002568818   0.4979856261586597   0.5028432630483058 Cl
   0.0027630004195829   0.5007100414319591   0.7209171983547784 Cl
   -0.0055575570988985   0.5096313902534800   0.2750787252820590 Cl
   -0.0065493472878363   0.7310399291105406   0.5008653528373533 Cl
   0.0070773741024541   0.2783399158077450   0.4943885589421411 Cl
   0.5052176888502168   0.2157747990331785   0.4983892853266478 Cl
   0.5039389930692220   0.7708692275371317   0.4989186960436137 Br
   0.5039240900009974   -0.0026885277630805   0.7270034215000472 Br
   0.5046105209566616   0.0011312928087501   0.2707489566864737 Br
   0.7342218597298523   -0.0068582173229481   0.4981823297228155 Br
   0.2737243974253332   0.0011929322280594   0.4981932858811419 Br
   0.5027654577963994   0.5008128105102447   0.2454891062445499 Br
   0.4961355979373434   0.5029880252789372   0.7572944176123426 Br
   0.4907633099123589   0.7448558460178297   0.0005558701890007 Br
   0.5061676999409802   0.2359955200022774   0.0024369119082902 I
   0.7609197333654962   0.5125990564383821   -0.0037103896097237 I
   0.2362041975424904   0.4900185276212236   0.0081588438167254 I
