Random_composition
1.0
  10.9519390170000008  0.0075237820000000  0.0068234450000000
  0.0074511710000000  10.9307477479999999  0.0105734320000000
  0.0066942990000000  0.0105093820000000  10.9739904989999992
Cs Rb Hf Pd Sn Cl Br I
5 3 2 1 1 13 8 3
Direct
   0.7557376002986761   0.2459139786944782   0.2607504637058967 Cs
   0.2449980970998392   0.7558359797158528   0.7445018737139565 Cs
   0.2450876067876933   0.7560881425638959   0.2557003500129873 Cs
   0.7553911848114189   0.2457860160404224   0.7394973440891258 Cs
   0.2445723404740593   0.2457959311153553   0.7390130571246388 Cs
   0.7523988354592798   0.7552090709589723   0.2549401602293671 Rb
   0.7524763378771734   0.7552895049500699   0.7449987784861660 Rb
   0.2471325410082824   0.2459670814459822   0.2594355251855055 Rb
   -0.0005624593820826   -0.0004465407563748   0.0005001425306028 Hf
   -0.0004243054728057   0.5010347037851880   0.4994805890668873 Hf
   0.5007287632253392   0.0006763262031577   0.4995417258867353 Pd
   0.5002768036382151   0.5039865890436261   0.0005474326607064 Sn
   0.2241044287719620   -0.0015975286115019   0.0005775225627120 Cl
   0.7749770458698053   -0.0032271348567155   0.0004033271800819 Cl
   -0.0001238762441847   0.2244452282398458   0.0006431287602139 Cl
   -0.0007628398053071   0.7746012807262607   0.0004314757905991 Cl
   -0.0004121730357598   -0.0002247334166800   0.2264267668966878 Cl
   -0.0010087511374780   -0.0007932017988335   0.7743441431626473 Cl
   0.2246670235898609   0.4993616992549637   0.4988765964805256 Cl
   0.7746260005001964   0.5015016654925767   0.4999040038199367 Cl
   -0.0007099025791000   0.5006345486512096   0.7236748946837401 Cl
   -0.0002659705927174   0.5003707316419229   0.2755398028825927 Cl
   -0.0019103719972323   0.7270850815919202   0.4996254781840254 Cl
   0.0007112005522662   0.2739383932841563   0.4989040840419420 Cl
   0.4995916321194243   0.2178174723834834   0.4989195121174959 Cl
   0.5028248855356393   0.7725302743981552   0.4998674553458465 Br
   0.5015011312368209   0.0002312835982633   0.7287500011851586 Br
   0.5004853386753196   0.0017555780760454   0.2706796951941515 Br
   0.7297820362244232   -0.0032617645015539   0.4998204491756041 Br
   0.2713871973082307   0.0028924449158992   0.4977986468836136 Br
   0.5003729400069100   0.5027964543839685   0.2449327297020202 Br
   0.5014137338114074   0.5040946796264421   0.7560566615129254 Br
   0.5018957556158570   0.7472236201137241   0.0000897234037013 Br
   0.4986457463349204   0.2385166011882433   0.0022357937264572 I
   0.7609699297985142   0.5077304769118900   0.0000819309863165 I
   0.2394264896351440   0.5004426371079900   0.0025100158712165 I
