Random_composition
1.0
  10.8734680949999998  0.0010030230000000  0.0207781360000000
  0.0007109940000000  10.9457901540000009  0.0283676020000000
  0.0207212720000000  0.0283505280000000  10.9980886850000008
Cs Rb Hf Pd Sn Cl Br I
5 3 2 1 1 13 8 3
Direct
   0.7599519595387652   0.2482867543436245   0.2625361913056937 Cs
   0.2412769558755936   0.7560271996867551   0.7468261323531290 Cs
   0.2428266682272666   0.7579050123538135   0.2535126462947674 Cs
   0.7571717307287069   0.2474452509139956   0.7360267939509568 Cs
   0.2447890320075177   0.2466232553541891   0.7378370789933130 Cs
   0.7528679041418276   0.7609870981699635   0.2511335840505350 Rb
   0.7511442748702303   0.7611592608314002   0.7473244301385850 Rb
   0.2533933824271888   0.2496046230852046   0.2711065857561219 Rb
   -0.0028637132997010   -0.0024793574323499   0.0014602388205113 Hf
   -0.0015627287602808   0.5045008721419612   0.4977293007381433 Hf
   0.5035545416213018   -0.0019911360705655   0.4983851027208144 Pd
   0.5000920121098017   0.5026550136945297   0.0018375831807614 Sn
   0.2230713557048458   -0.0004297650578461   -0.0013977715585611 Cl
   0.7711619642238249   -0.0113023727690747   0.0035240044112900 Cl
   -0.0073710136851516   0.2215186897315406   -0.0014003158677982 Cl
   0.0011933234126161   0.7728968116531251   0.0036151714141043 Cl
   -0.0016156174541949   -0.0010749601340335   0.2267297650510294 Cl
   -0.0054377190767208   -0.0043332824509259   0.7755289264153107 Cl
   0.2253526508019723   0.5043425227474688   0.4954597803387961 Cl
   0.7725408342467253   0.4995529309238861   0.5002930127543417 Cl
   -0.0000148785896543   0.5015802601855803   0.7212472918840951 Cl
   -0.0028827889730381   0.5058035313770547   0.2749006261275699 Cl
   -0.0048632540026156   0.7296792184070373   0.4990832459083436 Cl
   0.0036385680483929   0.2768427229851447   0.4960753808611433 Cl
   0.5053821212684372   0.2149270134815466   0.4975957454351826 Cl
   0.5024323082448126   0.7705832078969244   0.4985430607499226 Br
   0.5031219826802076   -0.0026961047473510   0.7268419790020728 Br
   0.5043724121349283   0.0000007873274432   0.2703824404641469 Br
   0.7339325481166722   -0.0074936438644552   0.4986750865072772 Br
   0.2726215180597234   0.0017301465304168   0.4969478342511703 Br
   0.5019775300867703   0.5026721902250163   0.2459282076594876 Br
   0.4995797520373232   0.5046728345978702   0.7575155597008387 Br
   0.4961707838152945   0.7463629308644997   0.0010690920705502 Br
   0.5033712502133332   0.2380854805611840   0.0028711324716908 I
   0.7629618705419350   0.5099858210464964   -0.0011656571130864 I
   0.2366628057943302   0.4953666074654897   0.0054209624033771 I
