Random_composition
1.0
  10.9293494520000003  0.0087228900000000  0.0073963580000000
  0.0086365220000000  10.9236245570000001  0.0132245830000000
  0.0072506650000000  0.0131603250000000  10.9793027389999995
Cs Rb Hf Pd Sn Cl Br I
5 3 2 1 1 13 8 3
Direct
   0.7565464024835126   0.2460484811115796   0.2613536115741071 Cs
   0.2442450244533292   0.7563323445558543   0.7445792771024219 Cs
   0.2443916577626276   0.7566283426320272   0.2556361149893313 Cs
   0.7560192951431266   0.2458232156202296   0.7389492296538009 Cs
   0.2439698754239219   0.2459233182709277   0.7384224181493390 Cs
   0.7526404718933970   0.7559941951932103   0.2551642449653320 Rb
   0.7527319058688163   0.7560936205661312   0.7447507093014156 Rb
   0.2468196575327800   0.2456782298205617   0.2606527490260778 Rb
   -0.0007382056549529   -0.0007655083450384   0.0006508230742710 Hf
   -0.0005828137759703   0.5013395206140503   0.4992570507348130 Hf
   0.5010120731791843   0.0004292312643749   0.4993011659535734 Pd
   0.5004682963025852   0.5037763008766778   0.0008585359227810 Sn
   0.2239888555795081   -0.0018611368573520   0.0004961982672740 Cl
   0.7747592179428751   -0.0033300626868694   0.0006242329147503 Cl
   -0.0005266317205465   0.2236782699782148   0.0005433717834307 Cl
   -0.0005174396721454   0.7746490539250970   0.0006903367763630 Cl
   -0.0006201091734369   -0.0003636372533057   0.2262593039425328 Cl
   -0.0012059810234876   -0.0008281100845081   0.7747896267639238 Cl
   0.2243727832717989   0.4996353513937596   0.4987587208014252 Cl
   0.7746404645141798   0.5013120869743248   0.4998259879479284 Cl
   -0.0006923273421462   0.5005736734078230   0.7231711731935038 Cl
   -0.0004339363136214   0.5006558019516241   0.2756597861711430 Cl
   -0.0020101862679079   0.7270137221667575   0.4994242845011281 Cl
   0.0006041400859547   0.2744950320246035   0.4987762501326493 Cl
   0.5002330278314153   0.2178509110211521   0.4988448939050892 Cl
   0.5025586859323763   0.7719790937765230   0.4997178714231028 Br
   0.5015073601591348   -0.0000879659632031   0.7284252948895582 Br
   0.5008628975162990   0.0015234261450261   0.2704866932466095 Br
   0.7304451180715367   -0.0038281912007380   0.4996936620712363 Br
   0.2713199205163072   0.0024995606444865   0.4976354414274725 Br
   0.5006369122577133   0.5030732434240101   0.2454166936061373 Br
   0.5012936111485942   0.5041857823437281   0.7561422436028894 Br
   0.5010257992360487   0.7471079554944581   0.0002125856905217 Br
   0.4993875242244150   0.2389257613330860   0.0021719646589039 I
   0.7624559941635374   0.5072260346134855   0.0001833221800383 I
   0.2383900809583480   0.5006111224417583   0.0024770615151656 I
