Random_composition
1.0
  10.8682818309999991  0.0027808280000000  0.0186440450000000
  0.0025022020000000  10.9522245209999998  0.0244468530000000
  0.0185476190000000  0.0244180370000000  11.0034696160000003
Cs Rb Hf Pd Sn Cl Br I
5 3 2 1 1 13 8 3
Direct
   0.7589974966895278   0.2482132910115245   0.2625791030928611 Cs
   0.2417109744463533   0.7563092058934675   0.7469729491309576 Cs
   0.2430199642758613   0.7575568986283069   0.2531309977591200 Cs
   0.7566504268110680   0.2475270383007389   0.7365123911907027 Cs
   0.2449883155308762   0.2472517553181606   0.7380606465887399 Cs
   0.7525776099185473   0.7604388428132156   0.2518740605725813 Rb
   0.7514436534687252   0.7604509135023622   0.7470388619114317 Rb
   0.2513206162661876   0.2484175714134065   0.2693133568489098 Rb
   -0.0025847658815748   -0.0023684256973378   0.0015037157936271 Hf
   -0.0015563895370366   0.5040964784796992   0.4978498270149044 Hf
   0.5033540059094649   -0.0018047461745444   0.4982482577727441 Pd
   0.5004907212123859   0.5034009833760962   0.0019504991952516 Sn
   0.2236580989929447   -0.0015359132475950   -0.0008308600592272 Cl
   0.7712448961973067   -0.0092875086553481   0.0030379441189626 Cl
   -0.0056635029206086   0.2216117378747316   -0.0006454435940152 Cl
   0.0006871466601685   0.7728888091927076   0.0031256040960987 Cl
   -0.0017023984437845   -0.0010665346048524   0.2267037489139461 Cl
   -0.0046134144812491   -0.0035572761977434   0.7757755757786680 Cl
   0.2254171770684807   0.5034856299674713   0.4961697413045809 Cl
   0.7722810690570528   0.4997776387026264   0.4998562961024677 Cl
   -0.0004073045474514   0.5015624047269822   0.7214775201343752 Cl
   -0.0023818471957227   0.5048317929598111   0.2746118237324249 Cl
   -0.0043269596095336   0.7290894496034468   0.4988396315876524 Cl
   0.0026572455990527   0.2767995326444003   0.4964355581775298 Cl
   0.5050717293398260   0.2148169410046593   0.4976695545020270 Cl
   0.5020432397191814   0.7709123054377225   0.4983713042171591 Br
   0.5028413466220653   -0.0026586801105395   0.7265181146175261 Br
   0.5041611523406091   -0.0003684023343235   0.2704082900124238 Br
   0.7339444887296571   -0.0074882358193262   0.4988880381641368 Br
   0.2722721487431956   0.0018033970590613   0.4968314403735417 Br
   0.5017949765232421   0.5030209650534121   0.2459676199180726 Br
   0.5001392887033570   0.5048901037467052   0.7576130709104598 Br
   0.4971302910906717   0.7466238145171156   0.0010613813869455 Br
   0.5027225303170890   0.2382704418139968   0.0028929289731210 I
   0.7636090104124474   0.5095653031918203   -0.0006992366119118 I
   0.2370049870595917   0.4965221115879205   0.0048850832654307 I
