Random_composition
1.0
  10.9000390169999992  0.0076286340000000  0.0295301540000000
  0.0073752280000000  10.9309362839999995  0.0380568830000000
  0.0296067540000000  0.0380201010000000  11.0111222410000007
Cs Rb Hf Pd Sn Cl Br I
5 3 2 1 1 13 8 3
Direct
   0.7636542924997664   0.2489770363315514   0.2614995836189050 Cs
   0.2397696862750831   0.7546518270407223   0.7469692632533496 Cs
   0.2425435305299811   0.7589079214295102   0.2539601251365428 Cs
   0.7587333077331698   0.2475017489340539   0.7350336474641842 Cs
   0.2438393645183077   0.2446813521658377   0.7389135637898377 Cs
   0.7541700653322957   0.7621611525434719   0.2491239043559952 Rb
   0.7500190389771104   0.7633321644750027   0.7475815452081412 Rb
   0.2631633806176006   0.2545325189536242   0.2783705387573027 Rb
   -0.0041680210026723   -0.0035865377641109   0.0009471854477569 Hf
   -0.0013971735833919   0.5059378836216464   0.4977863945147737 Hf
   0.5042714086374258   -0.0016253256955539   0.4986685754908397 Pd
   0.4987227602514132   0.5010730887660164   0.0012472262020412 Sn
   0.2207672964847934   0.0042812038558307   -0.0045165443130240 Cl
   0.7704395823089127   -0.0180160028827654   0.0051125064428898 Cl
   -0.0160076286570513   0.2200961432949846   -0.0053866866733944 Cl
   0.0059858227435520   0.7716839343680885   0.0051661721016526 Cl
   -0.0012463972714223   0.0002136922609702   0.2257661498467054 Cl
   -0.0084746859506522   -0.0072696891835760   0.7750941941878611 Cl
   0.2251637399019218   0.5078643047652583   0.4931589195731236 Cl
   0.7734728578644327   0.4980980763027249   0.5026584072031341 Cl
   0.0025532674473544   0.5008161182902993   0.7209723884129557 Cl
   -0.0053833721189642   0.5094362938154993   0.2749966214254856 Cl
   -0.0065134184821333   0.7310308712445225   0.5007302130735198 Cl
   0.0069832272456094   0.2782392830002941   0.4944977219588452 Cl
   0.5052804749223285   0.2157016500123912   0.4982734672471177 Cl
   0.5038900789871728   0.7708593729349692   0.4989812503347721 Br
   0.5039107559387563   -0.0027128028925709   0.7269661078497108 Br
   0.5046133464613046   0.0011157145957919   0.2707695150678792 Br
   0.7341451794216340   -0.0070005633585386   0.4982150664886068 Br
   0.2737764509197240   0.0012262315612403   0.4980944314894478 Br
   0.5026758316050807   0.5008930340480761   0.2455393209260023 Br
   0.4963880850964364   0.5031346170410145   0.7572519554003340 Br
   0.4911658761811045   0.7449965315316144   0.0006169716448726 Br
   0.5059472845751011   0.2360726946091250   0.0024915814439174 I
   0.7609601728651285   0.5124089309274881   -0.0035366020803979 I
   0.2361851715174645   0.4902859604755301   0.0079861669095617 I
