Random_composition
1.0
  10.8830842560000001  0.0089802990000000  0.0387313030000000
  0.0087473230000000  10.9345803030000006  0.0352246890000000
  0.0387984130000000  0.0350889700000000  11.0359167899999999
Cs Rb Hf Pd Sn Cl Br I
5 3 2 1 1 13 8 3
Direct
   0.7643249748653885   0.2500784862415968   0.2605617472134429 Cs
   0.2398321965163774   0.7539512864448858   0.7482507746364947 Cs
   0.2431706327720643   0.7592392160452585   0.2529022076180049 Cs
   0.7578757986274723   0.2482168875422640   0.7348907457772493 Cs
   0.2429911732434447   0.2442271286150978   0.7423049635545460 Cs
   0.7546314279232498   0.7609325945894470   0.2512078135664709 Rb
   0.7494359829547830   0.7631635795179370   0.7448607419339223 Rb
   0.2689468512124462   0.2557272390861327   0.2822751824634913 Rb
   -0.0048263233340083   -0.0040933949585677   -0.0004873978072287 Hf
   -0.0010426358211905   0.5058516452995483   0.4982741371102793 Hf
   0.5039502603224846   -0.0010655363868696   0.4988909383538734 Pd
   0.4983293973222348   0.5007791517416390   0.0009975848359692 Sn
   0.2203937453672880   0.0075279136735848   -0.0069474341650139 Cl
   0.7699495942677881   -0.0236119189137086   0.0049031333327148 Cl
   -0.0204368145065365   0.2195508515436935   -0.0086320029249065 Cl
   0.0094066590760231   0.7714175163926537   0.0053790479633569 Cl
   -0.0012524767133101   0.0010406093130220   0.2235067463675269 Cl
   -0.0098520246656903   -0.0100522381322287   0.7744735513463810 Cl
   0.2256581892649196   0.5087011824041734   0.4915958707000210 Cl
   0.7734203263748634   0.4982262930125283   0.5052597498580657 Cl
   0.0043191074795049   0.4996095099507953   0.7207651414097028 Cl
   -0.0071936314531660   0.5114054186731402   0.2761831735316850 Cl
   -0.0074373638257243   0.7309767093938507   0.5025300332603553 Cl
   0.0080814508490720   0.2784032915531862   0.4931543458581068 Cl
   0.5043658496340322   0.2163733178658077   0.4992800938493893 Cl
   0.5045998749981609   0.7713580823995648   0.4982092059419672 Br
   0.5038766939392032   -0.0026274620151458   0.7265881850333112 Br
   0.5044583174849446   0.0022936157784895   0.2715978144079625 Br
   0.7341288438162691   -0.0049671903039443   0.4976334368540281 Br
   0.2730694147170720   0.0014036643555550   0.4989965334921826 Br
   0.5050734511897734   0.5014088374812250   0.2447803773955952 Br
   0.4944270217102265   0.5017824914265431   0.7577580752133063 Br
   0.4878453162855228   0.7441428593438281   -0.0000242014831413 Br
   0.5091929786548650   0.2359900144783616   0.0027225302766296 I
   0.7607895367029074   0.5154759277977832   -0.0055585639576876 I
   0.2354980498504677   0.4871610959090244   0.0109160623327822 I
