Random_composition
1.0
  10.7836539830000007  0.0027610390000000  0.0061657580000000
  0.0027329350000000  10.7257068770000004  0.0068018270000000
  0.0060883400000000  0.0067606900000000  10.7169622039999997
Cs Rb Hf Pd Sn Cl Br I
5 3 2 1 1 13 8 3
Direct
   0.7522660415074215   0.2477043964042058   0.2556271838079692 Cs
   0.2481361519459274   0.7526370026359192   0.7471147694130957 Cs
   0.2481462264799650   0.7526827807624321   0.2529299180831828 Cs
   0.7522460191260456   0.2477011792468105   0.7444177613636634 Cs
   0.2477426759682894   0.2476875188740531   0.7443394498473559 Cs
   0.7508019772938331   0.7520363435298808   0.2522856257332455 Rb
   0.7508134473166111   0.7520494520717831   0.7477039858105916 Rb
   0.2489966552987092   0.2481928387404818   0.2542452357545766 Rb
   -0.0001243164341370   -0.0000625130384726   0.0001242135301573 Hf
   -0.0001168606028594   0.5000985801286295   0.4998813128695827 Hf
   0.5001262682034017   0.0027829616384255   0.4999343387846852 Pd
   0.4999448723223083   0.5075151840156165   0.0000788871329654 Sn
   0.2282795887095560   -0.0003769958673175   0.0004819507115943 Cl
   0.7715367114590324   -0.0018721794841350   0.0000303841316031 Cl
   0.0004236451411399   0.2299368568687907   0.0005181876243964 Cl
   -0.0009157359358795   0.7701461897869190   0.0000361338456889 Cl
   -0.0000281806701964   -0.0000391648756400   0.2322468244983559 Cl
   -0.0005233538035446   -0.0005519468881244   0.7678898949600278 Cl
   0.2288245130465609   0.4994245823573984   0.4994355697010485 Cl
   0.7710574337561814   0.5010215916431620   0.5000006421847540 Cl
   -0.0004662230119747   0.5005171454155964   0.7308571491146237 Cl
   -0.0000087626022177   0.5000342889575923   0.2690276267116457 Cl
   -0.0010805765565224   0.7312965888459492   0.4999684059434915 Cl
   0.0005503212603224   0.2689186032401654   0.4994118078571106 Cl
   0.4994191915376466   0.2289018944479770   0.4994254574342638 Cl
   0.5018114747593045   0.7664142113166958   0.4999936393364641 Br
   0.5008858074563687   -0.0002928056389525   0.7377327175781174 Br
   0.5000578784588422   0.0005160921318876   0.2623796930735198 Br
   0.7356459285146242   -0.0019198188240689   0.4999884427610141 Br
   0.2643713193552263   0.0012695574070554   0.4989372187126979 Br
   0.5000515778208257   0.5012097860479487   0.2573833525043785 Br
   0.5008558580107643   0.5020458014232705   0.7426775296761386 Br
   0.5016460335055434   0.7621451140986082   -0.0000230482532780 Br
   0.4986638261866073   0.2244256489924290   0.0013967442266413 I
   0.7739333312447558   0.5052798258654754   -0.0000241403847276 I
   0.2260275322821193   0.5005213682245117   0.0015453921421840 I
