Random_composition
1.0
  10.9088404850000007  0.0074371600000000  0.0061535160000000
  0.0073786050000000  10.8703374519999993  0.0080346630000000
  0.0060382060000000  0.0079673980000000  10.9112283280000000
Cs Rb Hf Pd Sn Cl Br I
5 3 2 1 1 13 8 3
Direct
   0.7545336249892518   0.2462805138665019   0.2593216913143224 Cs
   0.2459658001805737   0.7548684723334534   0.7449969047819024 Cs
   0.2460140598768684   0.7550462414278299   0.2551545548087108 Cs
   0.7543459647544498   0.2462257665320310   0.7408487418631486 Cs
   0.2456193358607785   0.2461923050936948   0.7404996268429523 Cs
   0.7519892045437686   0.7541165511027169   0.2542796710547565 Rb
   0.7520398449345455   0.7541703160199018   0.7456798228269772 Rb
   0.2477618216613061   0.2466330256355771   0.2576926901259293 Rb
   -0.0003951808126407   -0.0001628209615981   0.0003586892186067 Hf
   -0.0002641990822895   0.5007674213656351   0.4996750104010131 Hf
   0.5004430448292015   0.0012296248110631   0.4997476427198070 Pd
   0.5001954216500197   0.5022583147687619   0.0003259544264607 Sn
   0.2246879905455333   -0.0012406175070145   0.0006138031940514 Cl
   0.7747304878345522   -0.0030664669488380   0.0002178784555224 Cl
   0.0002355099246552   0.2258920535364863   0.0006776124593043 Cl
   -0.0009836975168332   0.7738062890082912   0.0002299264907241 Cl
   -0.0002214402066002   -0.0001559331406645   0.2280158146009691 Cl
   -0.0008349591521113   -0.0007845408461185   0.7724521188716353 Cl
   0.2254385337172210   0.4992519757417906   0.4990246079834932 Cl
   0.7741125699552797   0.5015253108939766   0.4999663406416781 Cl
   -0.0006813063295627   0.5006678301061156   0.7250550769648926 Cl
   -0.0001199192387367   0.5001853747500979   0.2745036422082019 Cl
   -0.0017169411306803   0.7280483012067025   0.4997934951542150 Cl
   0.0007559296061172   0.2724532030452881   0.4990488802009547 Cl
   0.4992431385439391   0.2172583125545531   0.4990182716698581 Cl
   0.5028084283933710   0.7744366054363573   0.4999495436414629 Br
   0.5014099680871817   0.0002774932386976   0.7297851439640554 Br
   0.5002398680889037   0.0016409407051872   0.2701078643913342 Br
   0.7291134421316628   -0.0028201086529490   0.4999121898487943 Br
   0.2714662721038153   0.0027333629660558   0.4980903527015680 Br
   0.5001774017670637   0.5023656205777357   0.2480459331004901 Br
   0.5013805446256681   0.5036887375955755   0.7523917134486238 Br
   0.5023184598567160   0.7532612646058595   0.0000052033470850 Br
   0.4982383880073203   0.2350081173830083   0.0021313705829496 I
   0.7637983713183538   0.5075987280717957   0.0000056427910939 I
   0.2361556049847261   0.5003400072291584   0.0023789025930402 I
