Random_composition
1.0
  10.8960193360000002  0.0108155170000000  0.0314300910000000
  0.0105750360000000  10.9325299089999994  0.0372782830000000
  0.0315163690000000  0.0372347660000000  11.0150276240000000
Cs Rb Hf Pd Sn Cl Br I
5 3 2 1 1 13 8 3
Direct
   0.7639493151699468   0.2492924821255086   0.2610457191719862 Cs
   0.2397212272761233   0.7543411889619273   0.7474111982936413 Cs
   0.2428128593091030   0.7589326012831783   0.2535396878499362 Cs
   0.7585476426597259   0.2477286921030090   0.7351887035332898 Cs
   0.2437497116209797   0.2446278000360813   0.7399799526842401 Cs
   0.7543016092668410   0.7619085691202043   0.2493266183496145 Rb
   0.7497736902809826   0.7633859356442791   0.7471844019533342 Rb
   0.2652829398830744   0.2552610711791982   0.2796185850589771 Rb
   -0.0043648332610617   -0.0039082604451346   0.0006548218117756 Hf
   -0.0013562018403414   0.5059745566131026   0.4977255573004303 Hf
   0.5042268811264398   -0.0014191365997957   0.4987618001290391 Pd
   0.4986028033768646   0.5009621974097637   0.0011587676749767 Sn
   0.2204882725445407   0.0050861148657269   -0.0053390304688575 Cl
   0.7703325481687081   -0.0192221203349565   0.0052333001350721 Cl
   -0.0178820447059190   0.2198440602680434   -0.0064015613223276 Cl
   0.0074131732482727   0.7714803448885195   0.0053143344404305 Cl
   -0.0012914330177431   0.0005956006776505   0.2251268423043813 Cl
   -0.0089265648791995   -0.0079701668178769   0.7750990708619094 Cl
   0.2251960420359163   0.5084791735752580   0.4928355173205172 Cl
   0.7735947131162834   0.4978154587939637   0.5033140479952500 Cl
   0.0032176657211551   0.5004528052342656   0.7208300440274874 Cl
   -0.0059484016354433   0.5100850197232126   0.2754039271291259 Cl
   -0.0066655180010578   0.7311372868247549   0.5011938366017874 Cl
   0.0072918918127185   0.2784380801337731   0.4941214227886861 Cl
   0.5050614878213100   0.2160671636103395   0.4986407157652270 Cl
   0.5040647396328772   0.7709229311713898   0.4987348832602485 Br
   0.5039488555283035   -0.0026067705726317   0.7269585053146412 Br
   0.5046100006737395   0.0012345595739729   0.2708630555766762 Br
   0.7342590093057625   -0.0064328452385045   0.4980797293682072 Br
   0.2736613600329574   0.0011819846471099   0.4984086217115786 Br
   0.5030689575080474   0.5007012373877890   0.2451417560294677 Br
   0.4956000447327867   0.5026540867593778   0.7575982057470982 Br
   0.4898784204742870   0.7444275503334832   0.0004096309083599 Br
   0.5067502145963306   0.2360306378456774   0.0023426157979362 I
   0.7607625773942991   0.5131031336387560   -0.0041196847080072 I
   0.2362663772580039   0.4894085791233722   0.0086136701591763 I
