Random_composition
1.0
  10.8968693779999999  0.0117220150000000  0.0323520920000000
  0.0114871960000000  10.9363419069999992  0.0364351360000000
  0.0324407730000000  0.0363833440000000  11.0199053839999994
Cs Rb Hf Pd Sn Cl Br I
5 3 2 1 1 13 8 3
Direct
   0.7640195873058470   0.2494282380174398   0.2608792286385090 Cs
   0.2397251252588626   0.7542320772530592   0.7475966040819354 Cs
   0.2429341948203770   0.7589588879916040   0.2533694893906035 Cs
   0.7584216720172823   0.2478287409998411   0.7352244430494526 Cs
   0.2436679915675816   0.2445966231155654   0.7404877478656756 Cs
   0.7543481607681248   0.7617553891398615   0.2495684401876853 Rb
   0.7496833880607513   0.7633757878113038   0.7468687059110755 Rb
   0.2661468004364553   0.2554727444380702   0.2801540759616090 Rb
   -0.0044526047441516   -0.0038882873657623   0.0004351871627014 Hf
   -0.0012778405443874   0.5059991821691443   0.4978904083661986 Hf
   0.5042013105513029   -0.0014509038776526   0.4987811333366915 Pd
   0.4985543003696999   0.5007629603214195   0.0011266302578601 Sn
   0.2205634431047018   0.0055056087822793   -0.0056802925457772 Cl
   0.7701670398029974   -0.0199809453513851   0.0052370225989421 Cl
   -0.0185516081773964   0.2199599068081720   -0.0068516092610219 Cl
   0.0079037695268361   0.7712489320923667   0.0053688062400592 Cl
   -0.0012977443131030   0.0007000089609115   0.2248192151829929 Cl
   -0.0091262262800297   -0.0083640495657789   0.7750547486729369 Cl
   0.2253221272932744   0.5086348938162146   0.4926338282504470 Cl
   0.7735058885535593   0.4978107293778128   0.5036538401466036 Cl
   0.0034648592082063   0.5002888732279036   0.7209127061068407 Cl
   -0.0061857548373786   0.5103730624093991   0.2753512398187724 Cl
   -0.0067988189152773   0.7312067022242283   0.5014161327009254 Cl
   0.0074571023986183   0.2783510066361353   0.4939295575311830 Cl
   0.5049447001968040   0.2161420973435662   0.4987764072704929 Cl
   0.5041675028012811   0.7710465691759946   0.4986137129574199 Br
   0.5039583322608228   -0.0025597735474709   0.7269027165149988 Br
   0.5046056671497836   0.0013728805681915   0.2710227380244842 Br
   0.7341948090680430   -0.0061286587204976   0.4979988819571055 Br
   0.2736036486668268   0.0012256954562254   0.4985300236046158 Br
   0.5033612251263611   0.5007192766981919   0.2449577689033958 Br
   0.4953217911591419   0.5024609881454470   0.7577277461500427 Br
   0.4893956031053635   0.7442764422101119   0.0003202581970933 Br
   0.5071797641871372   0.2361429361191792   0.0023346637488279 I
   0.7607289167660599   0.5134890843833320   -0.0043829973891088 I
   0.2361404543224528   0.4890058878038981   0.0089704369343705 I
