Random_composition
1.0
  10.8668084060000005  0.0129794630000000  0.0115634560000000
  0.0127834440000000  10.9486319959999996  0.0179282910000000
  0.0113999370000000  0.0178865590000000  11.0011213800000007
Cs Rb Hf Pd Sn Cl Br I
5 3 2 1 1 13 8 3
Direct
   0.7584243652177096   0.2474489691000293   0.2626753724716926 Cs
   0.2420763349561604   0.7570272628579267   0.7460947181994133 Cs
   0.2427496388116738   0.7574297073903923   0.2538280833900267 Cs
   0.7569276272742783   0.2469218485769091   0.7373712309618461 Cs
   0.2437528654159556   0.2473868857614286   0.7378862454100449 Cs
   0.7527960496933430   0.7589132673939344   0.2542149078715826 Rb
   0.7525706296961748   0.7589203251685985   0.7454023326303102 Rb
   0.2475856803747971   0.2460951903672123   0.2656070128454625 Rb
   -0.0017054907113857   -0.0016083761053892   0.0012106544725402 Hf
   -0.0012329841085921   0.5028137421801596   0.4983282591932354 Hf
   0.5023520490084343   -0.0012930392301153   0.4985168390323108 Pd
   0.5007831359602938   0.5035781305906640   0.0015917396391199 Sn
   0.2244696732280705   -0.0025372111387221   0.0003072271046896 Cl
   0.7724162471424005   -0.0061711981834893   0.0017124470404976 Cl
   -0.0023888531463522   0.2225148884488773   0.0004125317383149 Cl
   -0.0003060049767500   0.7739231369265621   0.0019205695978451 Cl
   -0.0012807453388209   -0.0010607033994784   0.2264199930536157 Cl
   -0.0030387154787065   -0.0024033583028208   0.7756062251682714 Cl
   0.2253850123639671   0.5008713584125069   0.4974932839854989 Cl
   0.7726368396986686   0.5013006077536224   0.4995770880882582 Cl
   -0.0008932390308624   0.5012297349497271   0.7218649683132755 Cl
   -0.0013024181568272   0.5025488185262307   0.2753369510586025 Cl
   -0.0038818419020934   0.7280131343517131   0.4988375881535408 Cl
   0.0016975576824239   0.2756621276871717   0.4972882336767360 Cl
   0.5028974856247781   0.2154532489570918   0.4978221646081200 Cl
   0.5023697211651341   0.7712616101311351   0.4986967489717866 Br
   0.5023542297698761   -0.0017847446530105   0.7268152736615965 Br
   0.5030032058606217   0.0004311838106812   0.2706174862850517 Br
   0.7329858299039975   -0.0069126635651185   0.4992825633973016 Br
   0.2713018956958574   0.0024993464121106   0.4966982741769019 Br
   0.5015727355867650   0.5035148642094196   0.2454861492249866 Br
   0.5013376716557096   0.5050290118866820   0.7573344760972103 Br
   0.4994733272426342   0.7470268655002081   0.0008309559373074 Br
   0.5011198338240915   0.2389261760258263   0.0028489627336099 I
   0.7639969143413602   0.5084736437013464   0.0001635734926115 I
   0.2369943570542328   0.4985567320185776   0.0038997166312801 I
