Random_composition
1.0
  10.9165467889999999  0.0108608710000000  0.0077992190000000
  0.0107548600000000  10.9327137239999992  0.0156468320000000
  0.0076442630000000  0.0156011730000000  10.9840857510000003
Cs Rb Hf Pd Sn Cl Br I
5 3 2 1 1 13 8 3
Direct
   0.7573896233422103   0.2462387018926268   0.2619580875537917 Cs
   0.2434440160471866   0.7568082440525443   0.7446946301023741 Cs
   0.2436543114140260   0.7571466165848498   0.2555253850326497 Cs
   0.7566670068086396   0.2459098598217258   0.7383956263543968 Cs
   0.2433620080931426   0.2461141487865948   0.7378512188805393 Cs
   0.7528954737506375   0.7567982772785276   0.2553645857652084 Rb
   0.7529943619458824   0.7569123826799430   0.7445229522566666 Rb
   0.2465100344814396   0.2454199780594218   0.2619241541179081 Rb
   -0.0009265063734231   -0.0011024161434801   0.0007988352918224 Hf
   -0.0007511418473570   0.5016478827940944   0.4990307598131689 Hf
   0.5013145921200864   0.0000676051779738   0.4990765006912133 Pd
   0.5007047385143953   0.5034325225122842   0.0011705817196240 Sn
   0.2243346464094589   -0.0021269213849186   0.0004200299095928 Cl
   0.7740635761619252   -0.0035160903971198   0.0008592362204084 Cl
   -0.0009322237395993   0.2234580763510611   0.0004452677945407 Cl
   -0.0002934827938256   0.7741982684418202   0.0009712723423167 Cl
   -0.0008340243835500   -0.0005307430533760   0.2263624725398604 Cl
   -0.0014413317691452   -0.0009078165481054   0.7749771477284905 Cl
   0.2246408064612662   0.4999226540251259   0.4986128017868882 Cl
   0.7740854630957065   0.5011341428903459   0.4997467882755362 Cl
   -0.0006850356850254   0.5005290906069474   0.7227778285897588 Cl
   -0.0006096282435178   0.5009740783825152   0.2756484395715615 Cl
   -0.0021509118656470   0.7275252319627454   0.4992107158170353 Cl
   0.0005218000935342   0.2744959172272349   0.4986196450957820 Cl
   0.5009145642070749   0.2176009410007508   0.4987341337669223 Cl
   0.5023018375457187   0.7717279782685695   0.4995461128332565 Br
   0.5015377861670899   -0.0004347167076774   0.7278616882775463 Br
   0.5012819819203975   0.0012874365926397   0.2705223097395840 Br
   0.7310809249364258   -0.0044502983454051   0.4995561667324658 Br
   0.2712959137598754   0.0021250668102446   0.4974461213300312 Br
   0.5009164087643684   0.5033475297701846   0.2458254159883628 Br
   0.5011937487670302   0.5042944994147913   0.7563024048792376 Br
   0.5001709766985640   0.7473361634574764   0.0003446453081264 Br
   0.5001345269113125   0.2391240566885426   0.0021310656056069 I
   0.7638118303806218   0.5067707849909809   0.0002834561742679 I
   0.2374034491851933   0.5007185765429728   0.0024830267789487 I
