Random_composition
1.0
  10.8877739770000002  0.0106973970000000  0.0369663390000000
  0.0104733660000000  10.9318156129999995  0.0350907270000000
  0.0370322300000000  0.0349535240000000  11.0355788060000002
Cs Rb Hf Pd Sn Cl Br I
5 3 2 1 1 13 8 3
Direct
   0.7642106192312801   0.2498986898104624   0.2605899386914586 Cs
   0.2398110357867044   0.7540106279855209   0.7481217277307376 Cs
   0.2431619022762045   0.7591307245444221   0.2529557166642259 Cs
   0.7579832979413975   0.2481242933388833   0.7350482845722645 Cs
   0.2432136606069332   0.2443615269182941   0.7419306772826991 Cs
   0.7545410679574543   0.7611474866866121   0.2507442707876764 Rb
   0.7494691709759257   0.7632398045011750   0.7454418452856972 Rb
   0.2683704826584242   0.2557315703464324   0.2817673249136278 Rb
   -0.0046942234342780   -0.0040764090060546   -0.0002069150725808 Hf
   -0.0011398162120148   0.5058221985957539   0.4980094440685768 Hf
   0.5039556936319490   -0.0011205786916656   0.4989180922631502 Pd
   0.4983589649838557   0.5006042839736148   0.0010050152771995 Sn
   0.2205245861265903   0.0070256047902023   -0.0066275200851747 Cl
   0.7699583785529284   -0.0227841337091041   0.0050180394116103 Cl
   -0.0199938790142001   0.2198088813092748   -0.0081902503281018 Cl
   0.0089632590983705   0.7714908194443046   0.0053994890929601 Cl
   -0.0012544550596968   0.0009230048960062   0.2238200666335010 Cl
   -0.0097092979112824   -0.0096928257921593   0.7745727882305852 Cl
   0.2256335800856752   0.5087072667339056   0.4918607659996709 Cl
   0.7734415505912245   0.4981560228047501   0.5048532694465824 Cl
   0.0040938819441253   0.4997973875264954   0.7210523843266751 Cl
   -0.0069087247050261   0.5111731366256509   0.2758929102673873 Cl
   -0.0073426560887172   0.7310335287603037   0.5022327356418465 Cl
   0.0079956705927920   0.2784103764312018   0.4933284336528909 Cl
   0.5045175420054391   0.2160854802707211   0.4991298901258498 Cl
   0.5045391758213239   0.7713719478750136   0.4982856928500891 Br
   0.5039310911591574   -0.0025731688645492   0.7266407995254293 Br
   0.5045286617243046   0.0020419905390199   0.2715088913953375 Br
   0.7340364681542354   -0.0052232148759319   0.4977164081779583 Br
   0.2733029845321987   0.0014114095380835   0.4988653117899075 Br
   0.5046343258695387   0.5011687220193530   0.2448298534341100 Br
   0.4946588809301171   0.5019380785202506   0.7576893833142473 Br
   0.4882167803882716   0.7441247849744623   0.0000689164855397 Br
   0.5087046691384869   0.2361298587007309   0.0025779420220406 I
   0.7607873601734605   0.5149588165126030   -0.0052433862986972 I
   0.2354997525023185   0.4876415659151616   0.0103875602056211 I
