Random_composition
1.0
  10.8686244439999999  0.0014786210000000  0.0198323440000000
  0.0011901850000000  10.9473619160000002  0.0266106000000000
  0.0197575590000000  0.0265911880000000  10.9976975069999998
Cs Rb Hf Pd Sn Cl Br I
5 3 2 1 1 13 8 3
Direct
   0.7594849695256480   0.2482538840779096   0.2625641818367840 Cs
   0.2414917442054886   0.7561613460630414   0.7469016801300363 Cs
   0.2429252253213745   0.7577345680316928   0.2533265213101014 Cs
   0.7569144448453782   0.2474872876864965   0.7362552772505118 Cs
   0.2448944924437330   0.2469293773831988   0.7379373931795082 Cs
   0.7527195344173085   0.7607275508847373   0.2514815841163090 Rb
   0.7512819789444002   0.7608198511835165   0.7471977147389519 Rb
   0.2523819167370631   0.2490317547273410   0.2702427293261926 Rb
   -0.0027267945480136   -0.0024376234718939   0.0014883974886776 Hf
   -0.0015709925141789   0.5043129689603427   0.4977488317248137 Hf
   0.5034571472323572   -0.0020311356359020   0.4983287920872965 Pd
   0.5002660335288074   0.5030937822252658   0.0019023004148770 Sn
   0.2233376737585588   -0.0009756172670677   -0.0011205388951141 Cl
   0.7712215350364090   -0.0103319795787773   0.0032933993110535 Cl
   -0.0065411568400469   0.2215681779886925   -0.0010289731716455 Cl
   0.0009332611454717   0.7729185126892335   0.0033819502533580 Cl
   -0.0016642259979446   -0.0010820772779593   0.2267048896954261 Cl
   -0.0050411580537274   -0.0039615292427311   0.7756610318860943 Cl
   0.2253637923408834   0.5039353680549030   0.4958001874273581 Cl
   0.7724395203371193   0.4996573883314648   0.5000750863819469 Cl
   -0.0002106071733638   0.5015782708342611   0.7213461611442418 Cl
   -0.0026397939055577   0.5053396925910306   0.2748052452755247 Cl
   -0.0046009794564518   0.7293847547575787   0.4989591574745215 Cl
   0.0031610100939782   0.2768255460981229   0.4962503117047616 Cl
   0.5052536745150980   0.2148417574330799   0.4976253041844465 Cl
   0.5022396708108064   0.7708517385730482   0.4984512966749997 Br
   0.5029898311714830   -0.0026722941223375   0.7265880552637096 Br
   0.5042796277940960   -0.0001788947466076   0.2704951387826837 Br
   0.7338586828707010   -0.0074801577195968   0.4987703026153922 Br
   0.2725331707340745   0.0017706819142159   0.4968838164552406 Br
   0.5018934954832500   0.5028451156710297   0.2459619628189814 Br
   0.4998509095387782   0.5047770142709608   0.7575535115686243 Br
   0.4966268215293974   0.7464800460537001   0.0010699006873754 Br
   0.5030746747140620   0.2381176028943953   0.0028793661300145 I
   0.7633028310371506   0.5097699650184531   -0.0009377752884964 I
   0.2368172624508791   0.4959370845456432   0.0051552768357048 I
