Random_composition
1.0
  10.9472657739999999  0.0076272930000000  0.0065134240000000
  0.0075568200000000  10.9232016999999999  0.0095543140000000
  0.0063962240000000  0.0095019710000000  10.9504954669999996
Cs Rb Hf Pd Sn Cl Br I
5 3 2 1 1 13 8 3
Direct
   0.7554548813676761   0.2459153109848948   0.2605123995113403 Cs
   0.2452336294908231   0.7556406503467059   0.7445081444868189 Cs
   0.2453071504592793   0.7558744847221880   0.2556852661858833 Cs
   0.7551621753531216   0.2458154195750793   0.7397147220661463 Cs
   0.2447975699235214   0.2458023321935350   0.7392576054083316 Cs
   0.7523216489519210   0.7549361918657888   0.2548448078079047 Rb
   0.7523923207412666   0.7550095283287066   0.7451001442156046 Rb
   0.2472593234211869   0.2460929398231933   0.2590264755157631 Rb
   -0.0005197673671812   -0.0003836227779707   0.0004581574169718 Hf
   -0.0003891953089522   0.5009379638391223   0.4995332341698714 Hf
   0.5006490825243959   0.0007593017427662   0.4996223067833390 Pd
   0.5002583815391249   0.5035977692668784   0.0004602598895543 Sn
   0.2241735619581355   -0.0015119721548183   0.0006040190983171 Cl
   0.7750247785858140   -0.0032274919323870   0.0003372241456149 Cl
   0.0000079399930256   0.2248007149008063   0.0006723103706182 Cl
   -0.0008518373307567   0.7745332678791663   0.0003566427057771 Cl
   -0.0003459030914926   -0.0001939621513961   0.2264083952785765 Cl
   -0.0009560675182582   -0.0008001088240258   0.7742648629292436 Cl
   0.2248192284541389   0.4992881008890968   0.4989075899089058 Cl
   0.7745762576070044   0.5015591514283738   0.4999283200736612 Cl
   -0.0007163138807937   0.5006608902097700   0.7235947650206391 Cl
   -0.0002123304550823   0.5002939183660956   0.2757575149827622 Cl
   -0.0018809826142470   0.7272260064017848   0.4996855277017188 Cl
   0.0007491228683749   0.2736371132884253   0.4989391322253600 Cl
   0.4994066128777575   0.2172613961519430   0.4989309740228405 Cl
   0.5029044748713530   0.7732809794953718   0.4999058003477770 Br
   0.5015058832184009   0.0003179509499561   0.7284620559663386 Br
   0.5003808323810214   0.0018206264942581   0.2711414676703621 Br
   0.7292694305839597   -0.0031054967857926   0.4998558874687479 Br
   0.2716946003277164   0.0029970297289775   0.4978488617008673 Br
   0.5002934511364674   0.5027031629337103   0.2447988221938655 Br
   0.5014544731251505   0.5040639187023106   0.7559911653671010 Br
   0.5021663322391596   0.7478493537463583   0.0000524168254251 Br
   0.4984153144680849   0.2382805935214595   0.0022580715359120 I
   0.7605727157290206   0.5078894062802226   0.0000487222296341 I
   0.2396235421885989   0.5003732837618693   0.0025276031465866 I
