Random_composition
1.0
  10.8964037519999994  0.0050586320000000  0.0279855440000000
  0.0047871620000000  10.9365325290000008  0.0381671020000000
  0.0280651080000000  0.0381927490000000  10.9969466990000004
Cs Rb Hf Pd Sn Cl Br I
5 3 2 1 1 13 8 3
Direct
   0.7634959218662241   0.2487576681722637   0.2618671228307624 Cs
   0.2397894110138021   0.7548883960019042   0.7466206470951740 Cs
   0.2423221270798050   0.7589216631520274   0.2543081020095523 Cs
   0.7588790486432774   0.2473183627389456   0.7348460580018298 Cs
   0.2438743647962538   0.2446521047658270   0.7381146425065900 Cs
   0.7541022213937062   0.7623600346032379   0.2489990213511049 Rb
   0.7501739416485979   0.7633465095741764   0.7478176875044684 Rb
   0.2617535597054907   0.2540506257284718   0.2776169050969375 Rb
   -0.0040173525735621   -0.0035013370467421   0.0011208623650537 Hf
   -0.0015007029876406   0.5058201782872436   0.4974441049303793 Hf
   0.5042067594562919   -0.0014024205567067   0.4987077937165305 Pd
   0.4987282281516368   0.5011311337608370   0.0013136460987583 Sn
   0.2209621160950788   0.0038397027519796   -0.0039483955444510 Cl
   0.7705066982072512   -0.0174250890631465   0.0050361266233740 Cl
   -0.0147043384868244   0.2207943684229572   -0.0047236359046493 Cl
   0.0049019349785583   0.7715819234145713   0.0050899374383384 Cl
   -0.0011987186357458   -0.0001046793526102   0.2259825031548653 Cl
   -0.0082105480577055   -0.0068603555227685   0.7752789796933548 Cl
   0.2250995786844330   0.5074204412387538   0.4933172676550318 Cl
   0.7735238697937938   0.4983667825589012   0.5022549848664587 Cl
   0.0020739437420346   0.5010739828775870   0.7212781542774411 Cl
   -0.0049945071442147   0.5090412143279883   0.2749073200768437 Cl
   -0.0064879091577400   0.7311631836648359   0.5004321052459092 Cl
   0.0068659510108742   0.2779655680471425   0.4947481206699391 Cl
   0.5054487317523511   0.2153510919752862   0.4979714428990130 Cl
   0.5038223755249824   0.7705300160419828   0.4991723165780550 Br
   0.5039108449219880   -0.0028196558529482   0.7267913192392479 Br
   0.5046374097700951   0.0010937857491734   0.2708629751932363 Br
   0.7339385842078721   -0.0074130894435853   0.4982822428426941 Br
   0.2740208097850392   0.0012672304666099   0.4978621031739865 Br
   0.5024601519038201   0.5010462112075789   0.2455977073805744 Br
   0.4969676141086945   0.5034820422476025   0.7571670454003674 Br
   0.4920963643010873   0.7452921107673851   0.0007659194650751 Br
   0.5054406658836677   0.2361674179004052   0.0026317434165680 I
   0.7609765247070460   0.5119868492571279   -0.0031506378326415 I
   0.2361344839313971   0.4908159548170080   0.0076147159471917 I
