Random_composition
1.0
  10.8856203269999998  0.0154047520000000  0.0079057920000000
  0.0152736710000000  10.9336026159999999  0.0166346550000000
  0.0077333770000000  0.0165932470000000  10.9872274240000003
Cs Rb Hf Pd Sn Cl Br I
5 3 2 1 1 13 8 3
Direct
   0.7581592770096032   0.2465779614262736   0.2624742621450412 Cs
   0.2426673319179143   0.7571301072829246   0.7450047776879344 Cs
   0.2429799137690442   0.7574889316881589   0.2551634162202460 Cs
   0.7572020380262838   0.2461587135269299   0.7378866969842949 Cs
   0.2429380869673796   0.2464979135353524   0.7374907846692877 Cs
   0.7530709032290874   0.7576031800468858   0.2553459396337363 Rb
   0.7531375630112378   0.7577085834174788   0.7444927928164962 Rb
   0.2463669180792793   0.2453451445559305   0.2632676043672263 Rb
   -0.0011389185837163   -0.0012747977260302   0.0009447524360077 Hf
   -0.0009191547895454   0.5020483691161988   0.4988051720183471 Hf
   0.5016321967363627   -0.0003608352925748   0.4988601756426793 Pd
   0.5008299303707268   0.5037920172104555   0.0013934485702573 Sn
   0.2247380040171413   -0.0023357960987523   0.0003997480964492 Cl
   0.7732645509554377   -0.0041231178860952   0.0011199657081689 Cl
   -0.0013048353325705   0.2233155482361042   0.0004000589490019 Cl
   -0.0002572019327373   0.7738668369600727   0.0012950515163752 Cl
   -0.0010281036735734   -0.0007853474659891   0.2267497609557035 Cl
   -0.0018467734406509   -0.0012382731094117   0.7748474542227389 Cl
   0.2253915228217826   0.5001863680991264   0.4983302395173007 Cl
   0.7730594544712569   0.5011330879682377   0.4996712969397328 Cl
   -0.0007426125369103   0.5006137988568891   0.7225288079290447 Cl
   -0.0008027798470852   0.5014020724339927   0.2754949523942127 Cl
   -0.0025639104814724   0.7281030560339593   0.4989992757067556 Cl
   0.0006720665259018   0.2743653001632439   0.4983041219944487 Cl
   0.5016340771194460   0.2165234507860257   0.4984608201027938 Cl
   0.5021971521529653   0.7719970382434267   0.4992959204063422 Br
   0.5017075442844938   -0.0008779604914772   0.7274399537431414 Br
   0.5018319254924952   0.0010426663298119   0.2705500816602938 Br
   0.7317863332210315   -0.0052571685259319   0.4994082573243200 Br
   0.2712003927255135   0.0020114716907554   0.4971656884097255 Br
   0.5012153131655477   0.5035443078964600   0.2456143944243005 Br
   0.5012356260625116   0.5044968767442178   0.7569475794901086 Br
   0.4996659447457545   0.7471896203309271   0.0005051778035873 Br
   0.5006993813902386   0.2389211989644209   0.0022541813474380 I
   0.7636851544937483   0.5067972572072293   0.0003496848056593 I
   0.2376351461106029   0.5003925981645548   0.0027402224934540 I
