Random_composition
1.0
  10.8972207240000003  0.0054956950000000  0.0280917330000000
  0.0052289860000000  10.9322919509999998  0.0378458190000000
  0.0281635400000000  0.0378393190000000  11.0019714250000007
Cs Rb Hf Pd Sn Cl Br I
5 3 2 1 1 13 8 3
Direct
   0.7633915064586148   0.2487820571469754   0.2618057744065505 Cs
   0.2398394064705970   0.7548743840918846   0.7467037805110888 Cs
   0.2423978142349560   0.7588837670293248   0.2542053546220420 Cs
   0.7587887107895399   0.2473644472430812   0.7349385203512004 Cs
   0.2438986697822454   0.2447376575430558   0.7382818817491668 Cs
   0.7540609315835617   0.7622710751907233   0.2491052051158749 Rb
   0.7501774844872416   0.7632583285847745   0.7477505403400291 Rb
   0.2617406655632067   0.2539833517184554   0.2775261746464321 Rb
   -0.0040141152950780   -0.0033825264854326   0.0010789682577485 Hf
   -0.0014373524294179   0.5058366317972148   0.4977404834615908 Hf
   0.5042502665079376   -0.0018842627859834   0.4986375473717817 Pd
   0.4987879640166668   0.5011473502417478   0.0013126601791416 Sn
   0.2209923308769312   0.0037646111463896   -0.0039729727207589 Cl
   0.7705294783679520   -0.0173251646728205   0.0049991201164578 Cl
   -0.0147037320923748   0.2205283163218034   -0.0047339717052435 Cl
   0.0049913962176115   0.7717156963666395   0.0050548731966014 Cl
   -0.0012264324121949   -0.0000791379257598   0.2260056267735198 Cl
   -0.0081642045227868   -0.0068566591458162   0.7752218682511791 Cl
   0.2251144715191272   0.5074027043185327   0.4933582231571645 Cl
   0.7734448016334177   0.4983478509627043   0.5022601858444385 Cl
   0.0020960560763775   0.5010415359943509   0.7211051987321104 Cl
   -0.0050005359962096   0.5090074344185044   0.2748358956485297 Cl
   -0.0064306730496337   0.7310085794755864   0.5004353145158291 Cl
   0.0067661965754743   0.2780132776767635   0.4947366317692307 Cl
   0.5054157308612220   0.2155401123471334   0.4980257167097230 Cl
   0.5037791874439437   0.7707830709079065   0.4991057366780538 Br
   0.5038772779411060   -0.0027675074764537   0.7269169900275710 Br
   0.5046230012078983   0.0010757654191548   0.2707808843596473 Br
   0.7340022721871562   -0.0072984249872330   0.4982822266346121 Br
   0.2738543427400033   0.0013012510374152   0.4978769257266655 Br
   0.5024888775437928   0.5010755486129275   0.2456251245988343 Br
   0.4969397757039412   0.5034523044387811   0.7571858000635483 Br
   0.4920476648269048   0.7452524664769506   0.0007483057447424 Br
   0.5054739378814386   0.2362673209576928   0.0026094078710985 I
   0.7610474152985601   0.5119975733240952   -0.0031563532514238 I
   0.2361591990779260   0.4908791556106886   0.0076084686940454 I
