Random_composition
1.0
  10.8748260820000002  0.0030381500000000  0.0445225750000000
  0.0027909620000000  10.9298937800000004  0.0357693810000000
  0.0445859020000000  0.0355652560000000  11.0460702269999995
Cs Rb Hf Pd Sn Cl Br I
5 3 2 1 1 13 8 3
Direct
   0.7649498259856883   0.2507228211672368   0.2607084876978656 Cs
   0.2398359180027446   0.7538418235122998   0.7484912970899658 Cs
   0.2428541605000866   0.7598291852182852   0.2530527898484345 Cs
   0.7576542287551993   0.2484206322395004   0.7340593771270566 Cs
   0.2421908830367681   0.2435311677209836   0.7429833334810368 Cs
   0.7550587661092346   0.7603166279377152   0.2526633207065120 Rb
   0.7494556704517591   0.7628933539210175   0.7428518841576226 Rb
   0.2700054310311069   0.2554181271921230   0.2836105918449788 Rb
   -0.0052413716748300   -0.0049484871176743   -0.0010582619950076 Hf
   -0.0009549156070605   0.5059112679695686   0.4984212728385669 Hf
   0.5038129227277288   -0.0005721911331445   0.4988950192272331 Pd
   0.4987065317978671   0.5010498052686179   0.0012288587136837 Sn
   0.2200855798906429   0.0088094279321985   -0.0080068189594716 Cl
   0.7695921474921057   -0.0254639181101288   0.0044926931897647 Cl
   -0.0220007045531550   0.2186876710793179   -0.0100146742085635 Cl
   0.0113304220766296   0.7707412596038049   0.0052151218924279 Cl
   -0.0014140165093279   0.0015325877412127   0.2227813227120502 Cl
   -0.0100469124667298   -0.0107133756045793   0.7739739427267371 Cl
   0.2259443103611312   0.5088536687770689   0.4908441541039271 Cl
   0.7731312179766483   0.4980485337186480   0.5064926444092686 Cl
   0.0052267030367514   0.4988546299307860   0.7208159470993046 Cl
   -0.0082751741414556   0.5120624523020851   0.2765881632402882 Cl
   -0.0071522442933467   0.7310294752924497   0.5035030422778248 Cl
   0.0077930490285219   0.2785441236527503   0.4928585072000288 Cl
   0.5040078458895849   0.2168878225379025   0.4998666689829451 Cl
   0.5044909734454442   0.7718607006955780   0.4980087642272642 Br
   0.5036160260430667   -0.0029239136743525   0.7264956803077480 Br
   0.5041658285072830   0.0030816221441267   0.2715140271370354 Br
   0.7344767068707182   -0.0043962592335144   0.4973729429833810 Br
   0.2726598567575759   0.0009833863324183   0.4994568378238528 Br
   0.5062896706577323   0.5023985289171374   0.2445999473339886 Br
   0.4935526196088583   0.5014220418551208   0.7583484477533645 Br
   0.4867029257237810   0.7444139246533376   -0.0003880559074674 Br
   0.5104139758264343   0.2361707779442815   0.0033113471299012 I
   0.7608888648650910   0.5170430222106588   -0.0066640025723843 I
   0.2361924397517822   0.4856591979157340   0.0126237089421608 I
