Random_composition
1.0
  10.8834197150000005  0.0019411970000000  0.0235286280000000
  0.0016543950000000  10.9324962190000008  0.0328391210000000
  0.0235281300000000  0.0328149940000000  10.9961980320000006
Cs Rb Hf Pd Sn Cl Br I
5 3 2 1 1 13 8 3
Direct
   0.7614992211361168   0.2484054509432349   0.2623839206102626 Cs
   0.2406048485376284   0.7555852448337874   0.7466131583708504 Cs
   0.2425412617904570   0.7584208511309285   0.2540330262012755 Cs
   0.7580088986186410   0.2473110779586487   0.7353690419777981 Cs
   0.2443862277283459   0.2456748545808495   0.7376560659855547 Cs
   0.7533721502391117   0.7617382379396680   0.2501036598979137 Rb
   0.7507188700322626   0.7622046136557438   0.7476353610143706 Rb
   0.2567639557975697   0.2514635148268857   0.2738883791329800 Rb
   -0.0033350868927748   -0.0026734572950713   0.0013419423662167 Hf
   -0.0015103857894152   0.5051186158434571   0.4978082306293936 Hf
   0.5039045538035745   -0.0021044038813673   0.4984980179538242 Pd
   0.4994167259836926   0.5019501305848647   0.0016038096541903 Sn
   0.2221418705654070   0.0014000669974834   -0.0023601494198059 Cl
   0.7709777287985164   -0.0141957584490009   0.0042192881500671 Cl
   -0.0102075328012961   0.2212521163435003   -0.0026850694842080 Cl
   0.0023311015511147   0.7725649952503373   0.0043146546543919 Cl
   -0.0014276295028076   -0.0008735028368073   0.2264921264587175 Cl
   -0.0066692847700438   -0.0054591121621122   0.7753976571495438 Cl
   0.2251866022184141   0.5056190077210744   0.4944379474259514 Cl
   0.7729983378126966   0.4991584071980358   0.5010532249691338 Cl
   0.0007234870811977   0.5014797449572819   0.7211087687073680 Cl
   -0.0037108537772092   0.5072324400925661   0.2748886692497101 Cl
   -0.0056592326378960   0.7302959832778063   0.4995554699754454 Cl
   0.0051319071416156   0.2772541198096474   0.4955180377637051 Cl
   0.5055824570130429   0.2152801654938241   0.4976069647998917 Cl
   0.5030558694190461   0.7702507100642709   0.4988723751021189 Br
   0.5035044628137677   -0.0027593659313286   0.7273917605588115 Br
   0.5045658732138388   0.0005684432029956   0.2701824377340871 Br
   0.7341152854040158   -0.0075126285219353   0.4984526439690509 Br
   0.2729673358073555   0.0016010061734611   0.4972459446030633 Br
   0.5021996530805394   0.5020302595577406   0.2456565160868013 Br
   0.4986238999195755   0.5042704437846977   0.7574998414348958 Br
   0.4946600536005909   0.7455165436052372   0.0010048218117992 Br
   0.5042349068105679   0.2377104213510978   0.0028309642180633 I
   0.7618699718981801   0.5107648480155057   -0.0019414732016978 I
   0.2364362440087686   0.4934530461232699   0.0063224048054812 I
