Random_composition
1.0
  10.8932843029999997  0.0037359220000000  0.0256696940000000
  0.0034590670000000  10.9312721289999999  0.0356262970000000
  0.0257128000000000  0.0356122400000000  10.9983558570000000
Cs Rb Hf Pd Sn Cl Br I
5 3 2 1 1 13 8 3
Direct
   0.7626385771389381   0.2485441702463444   0.2621817870013872 Cs
   0.2401353013590787   0.7552338847718160   0.7465342747922117 Cs
   0.2423756563980830   0.7587441381418982   0.2542904669950942 Cs
   0.7585670060847135   0.2472549723841160   0.7349906788885622 Cs
   0.2440782079744553   0.2450479657540938   0.7377279423376658 Cs
   0.7537671564961544   0.7621739694094855   0.2494343361148477 Rb
   0.7504167934447412   0.7628989711010908   0.7477833843664811 Rb
   0.2593864340950394   0.2528629898987839   0.2759387945880125 Rb
   -0.0037014978903116   -0.0030069978542208   0.0012394711258722 Hf
   -0.0014868051947836   0.5055222180635145   0.4977115081859783 Hf
   0.5041093591116272   -0.0019814175371190   0.4985954563461918 Pd
   0.4989236919974851   0.5017288874519312   0.0014336723910598 Sn
   0.2215421587998206   0.0027695713175448   -0.0031618897812512 Cl
   0.7706954883095907   -0.0160956842207652   0.0046906931313324 Cl
   -0.0125167807650888   0.2211380161185392   -0.0037366518452818 Cl
   0.0035119651109590   0.7719967752849036   0.0047749375646448 Cl
   -0.0012838507934991   -0.0005490759807614   0.2262394988808532 Cl
   -0.0075371729095891   -0.0062365481424098   0.7753391300401701 Cl
   0.2251406867954544   0.5065727532848329   0.4937704750338646 Cl
   0.7732750676108656   0.4987841492024344   0.5016768419878398 Cl
   0.0013861578031933   0.5013083892273705   0.7212800494304055 Cl
   -0.0043762863821820   0.5082402587293514   0.2747306650933942 Cl
   -0.0061747974849082   0.7307637500931479   0.4999869226148368 Cl
   0.0061541655033980   0.2776305547549735   0.4951068274799436 Cl
   0.5055735681095682   0.2154759204813153   0.4977303465398067 Cl
   0.5034994382616577   0.7702767901572364   0.4990912537439552 Br
   0.5037486082115029   -0.0028043838038164   0.7273767953319079 Br
   0.5046326037842001   0.0009192366974410   0.2703089011787773 Br
   0.7341580240500324   -0.0074986659334007   0.4983455353816560 Br
   0.2733795961438914   0.0014609436075266   0.4975453106409048 Br
   0.5023390731474915   0.5014988016445653   0.2455174754812925 Br
   0.4978068873480151   0.5038926132485643   0.7574068097035737 Br
   0.4934048901359348   0.7450015320553393   0.0009040261776327 Br
   0.5048550064559916   0.2370195813380360   0.0027619034031354 I
   0.7612577418240076   0.5114068467646580   -0.0025668187014022 I
   0.2363169460337470   0.4920028658165561   0.0070179195044632 I
