Random_composition
1.0
  10.8949369120000004  0.0044366620000000  0.0268965750000000
  0.0041626600000000  10.9340589619999999  0.0369723540000000
  0.0269589960000000  0.0369793320000000  10.9976093190000004
Cs Rb Hf Pd Sn Cl Br I
5 3 2 1 1 13 8 3
Direct
   0.7630931065651233   0.2486574539533698   0.2620153047841675 Cs
   0.2399518201653075   0.7550514800551325   0.7465795382528004 Cs
   0.2423470236338009   0.7588381369378773   0.2543003285308137 Cs
   0.7587320732839431   0.2472885077156200   0.7349142557442232 Cs
   0.2439699210897499   0.2448376525104231   0.7379327256459091 Cs
   0.7539445795747867   0.7622722388307044   0.2492040219392341 Rb
   0.7502882688218011   0.7631363674412455   0.7478011473975966 Rb
   0.2606404987721642   0.2534920213100673   0.2768281158404992 Rb
   -0.0038685973163231   -0.0032692674899624   0.0011770671386243 Hf
   -0.0014941776216551   0.5056801714965773   0.4975703212602102 Hf
   0.5041611326971045   -0.0016742837615999   0.4986548926610636 Pd
   0.4988203150939010   0.5014118056071885   0.0013698492799556 Sn
   0.2212351114135428   0.0033364353970210   -0.0035783979495775 Cl
   0.7705954260958334   -0.0167997158045749   0.0048733088994705 Cl
   -0.0136765305112409   0.2209552911820854   -0.0042592334439628 Cl
   0.0042482228023411   0.7717772901851122   0.0049421026514368 Cl
   -0.0012385763947450   -0.0003133009402032   0.2261032216010986 Cl
   -0.0078939571939895   -0.0065671236893238   0.7753071485911653 Cl
   0.2251187283604015   0.5070222140822993   0.4935308315668887 Cl
   0.7734071117368809   0.4985628548500828   0.5019831851741802 Cl
   0.0017502429211969   0.5011844040627256   0.7212788458987551 Cl
   -0.0047036879993834   0.5086645380241457   0.2748242731725626 Cl
   -0.0063404044644648   0.7309755923171021   0.5002227745347770 Cl
   0.0065315766880455   0.2778080248582677   0.4949169358939873 Cl
   0.5055074306306911   0.2154101035109894   0.4978581438983738 Cl
   0.5036703666915432   0.7704108551172004   0.4991347601212389 Br
   0.5038350171952840   -0.0028124758324194   0.7270664301295200 Br
   0.5046353790520056   0.0010119212766741   0.2706024134196663 Br
   0.7340416098344199   -0.0074532198224886   0.4983121512056037 Br
   0.2737194846571883   0.0013581894247875   0.4977125036106899 Br
   0.5024024848214229   0.5012585334889392   0.2455601310800791 Br
   0.4973620251686611   0.5036747756291325   0.7572791850765387 Br
   0.4927119647666882   0.7451554182065560   0.0008308701931717 Br
   0.5051651691127815   0.2365680647406107   0.0026929769959839 I
   0.7611092669541091   0.5117138650945916   -0.0028761249587367 I
   0.2362204457377248   0.4913738596693198   0.0073342513303587 I
