Random_composition
1.0
  10.9512154109999997  0.0075398100000000  0.0067754420000000
  0.0074675300000000  10.9295793159999999  0.0104156320000000
  0.0066481450000000  0.0103533940000000  10.9703525220000007
Cs Rb Hf Pd Sn Cl Br I
5 3 2 1 1 13 8 3
Direct
   0.7556933229819273   0.2459145836373227   0.2607134531163016 Cs
   0.2450345766414061   0.7558062498789156   0.7445027464976053 Cs
   0.2451211224655675   0.7560551275998357   0.2556986567610836 Cs
   0.7553552490402872   0.2457906233117336   0.7395306626081150 Cs
   0.2446067478196525   0.2457966537711530   0.7390512326213491 Cs
   0.7523873537549862   0.7551670156428141   0.2549258736928696 Rb
   0.7524632569597112   0.7552461909721065   0.7450139223931468 Rb
   0.2471514477668299   0.2459866995611952   0.2593720964804667 Rb
   -0.0005561048376193   -0.0004365145750481   0.0004939052250494 Hf
   -0.0004184061805315   0.5010203591232678   0.4994884512792935 Hf
   0.5007164540329245   0.0006891954872241   0.4995537048887445 Pd
   0.5002735456606310   0.5039263032196941   0.0005343232741181 Sn
   0.2241146643176467   -0.0015843062958059   0.0005813874831395 Cl
   0.7749844351322839   -0.0032276910745037   0.0003931283286158 Cl
   -0.0001041674505468   0.2244994076613926   0.0006474178976343 Cl
   -0.0007768153398730   0.7745907929274869   0.0004199874715347 Cl
   -0.0004021156665882   -0.0002196991479348   0.2264234451751241 Cl
   -0.0010000657314762   -0.0007941215599070   0.7743310919252600 Cl
   0.2246905348825080   0.4993504874178107   0.4988815592226043 Cl
   0.7746182663793303   0.5015109576412052   0.4999071866001834 Cl
   -0.0007103821620740   0.5006389392687914   0.7236622821624257 Cl
   -0.0002573678095850   0.5003585837252820   0.2755727481721250 Cl
   -0.0019058465669677   0.7271068011176582   0.4996347770133887 Cl
   0.0007166222398179   0.2738915290599846   0.4989094361568567 Cl
   0.4995625579488972   0.2177309657593287   0.4989217462495041 Cl
   0.5028370643179543   0.7726466934827471   0.4998732212126017 Br
   0.5015017448722684   0.0002446757729264   0.7287048925301535 Br
   0.5004692736174943   0.0017652425600295   0.2707516196394227 Br
   0.7297026823638640   -0.0032377016705258   0.4998262046284609 Br
   0.2714346015606044   0.0029085703101429   0.4978063015796982 Br
   0.5003606490881380   0.5027816299704094   0.2449121887032181 Br
   0.5014200874099409   0.5040900098129631   0.7560461001239491 Br
   0.5019377847540487   0.7473201277944550   0.0000843489954069 Br
   0.4986098847750364   0.2384801202981970   0.0022394701012087 I
   0.7609089490541348   0.5077553245469258   0.0000771090026674 I
   0.2394571020326381   0.5004317518347697   0.0025127049718944 I
