Random_composition
1.0
  10.8812798639999997  0.0015838730000000  0.0231336100000000
  0.0012950080000000  10.9330010089999998  0.0323048220000000
  0.0231246140000000  0.0322800580000000  10.9956413430000008
Cs Rb Hf Pd Sn Cl Br I
5 3 2 1 1 13 8 3
Direct
   0.7612735037455270   0.2483822507510424   0.2624171670622438 Cs
   0.2406983196957524   0.7556513839846408   0.7466349928480771 Cs
   0.2425766914897177   0.7583542230348922   0.2539742558094363 Cs
   0.7578927119593318   0.2473272630956592   0.7354502652560407 Cs
   0.2444486054114869   0.2458017942635655   0.7376554204589429 Cs
   0.7532953001213183   0.7616462431853366   0.2502390381940534 Rb
   0.7507779595198906   0.7620632423676869   0.7476029111593075 Rb
   0.2562603345457403   0.2511923241905919   0.2734871897177527 Rb
   -0.0032641447206766   -0.0026176480258647   0.0013605458415584 Hf
   -0.0015169081630453   0.5050381656108528   0.4978190678257542 Hf
   0.5038621974911958   -0.0021082044479369   0.4984795140747549 Pd
   0.4995223111446987   0.5019752535622727   0.0016377420735363 Sn
   0.2222550697928263   0.0011304562256460   -0.0022088826412768 Cl
   0.7710345290838058   -0.0138145403134429   0.0041252222365688 Cl
   -0.0097680677939078   0.2212645621081915   -0.0024847974548032 Cl
   0.0021175589521031   0.7726780930404963   0.0042216532451405 Cl
   -0.0014563955709705   -0.0009302497064954   0.2265401048956648 Cl
   -0.0064977785345716   -0.0053059478979472   0.7754083148778518 Cl
   0.2251958123656752   0.5054347368243919   0.4945725546204158 Cl
   0.7729448828798037   0.4992266595024973   0.5009340878203178 Cl
   0.0005997530151858   0.5015094090307924   0.7210698044825802 Cl
   -0.0035836161717379   0.5070346945387328   0.2749328704094681 Cl
   -0.0055541067645217   0.7302044245985325   0.4994751275764234 Cl
   0.0049259394864460   0.2771822898323377   0.4955983512659440 Cl
   0.5055797469514379   0.2152297451820922   0.4975890888061784 Cl
   0.5029663258600882   0.7702561471153838   0.4988259815276016 Br
   0.5034548759965869   -0.0027491958987559   0.7273702218945001 Br
   0.5045501709034163   0.0004947881979556   0.2701772326329528 Br
   0.7340958774569324   -0.0075115250392604   0.4984748228657866 Br
   0.2728999328763665   0.0016252084485332   0.4971910384103703 Br
   0.5021732983626895   0.5021332810025294   0.2456920436223618 Br
   0.4987767794868677   0.5043397964108128   0.7575109650569227 Br
   0.4948940567132609   0.7456482567687973   0.0010225215010590 Br
   0.5041168283144669   0.2378340416427072   0.0028415597184260 I
   0.7619986757777187   0.5106422198561015   -0.0018219934225891 I
   0.2364554140091470   0.4937368764556538   0.0061869834272556 I
