Random_composition
1.0
  10.8943241190000002  0.0041768260000000  0.0264416440000000
  0.0039017650000000  10.9330255960000002  0.0364732320000000
  0.0264969030000000  0.0364724100000000  10.9978861380000001
Cs Rb Hf Pd Sn Cl Br I
5 3 2 1 1 13 8 3
Direct
   0.7629244046639326   0.2486150614365052   0.2620766566876505 Cs
   0.2400205899300653   0.7551192907720113   0.7465627227726075 Cs
   0.2423575089412562   0.7588030257592921   0.2542966562059372 Cs
   0.7586713415650940   0.2472761108255899   0.7349421899893409 Cs
   0.2440099493450789   0.2449156798851700   0.7378568033483737 Cs
   0.7538788504275626   0.7622353872264188   0.2492892708015911 Rb
   0.7503364536122173   0.7630488041497614   0.7477945226343174 Rb
   0.2601754339751819   0.2532582330658446   0.2764979878269369 Rb
   -0.0038065158815681   -0.0031718451311464   0.0011998976726592 Hf
   -0.0014914443390465   0.5056218593741633   0.4976226980518894 Hf
   0.5041418515927942   -0.0017883503060839   0.4986335390945920 Pd
   0.4988585031375113   0.5015295608458826   0.0013936275420344 Sn
   0.2213490714112383   0.0031263390909634   -0.0034240089926781 Cl
   0.7706322201806122   -0.0165383391305674   0.0048060530174456 Cl
   -0.0132458570199708   0.2210233188094431   -0.0040654351197603 Cl
   0.0039753800266831   0.7718581947877416   0.0048802761488433 Cl
   -0.0012557750938716   -0.0004009084650540   0.2261541714449629 Cl
   -0.0077616935547559   -0.0064451814674531   0.7753190205411050 Cl
   0.2251266764678929   0.5068556864758710   0.4936194599037573 Cl
   0.7733583401058128   0.4986447143688031   0.5018695302420619 Cl
   0.0016157636542916   0.5012305527738364   0.7212791329878612 Cl
   -0.0045826752487482   0.5085076271745356   0.2747895567281594 Cl
   -0.0062788490724578   0.7308969531354306   0.5001350059396389 Cl
   0.0063914651716400   0.2777419578754035   0.4949870169575645 Cl
   0.5055319561818428   0.2154346118230307   0.4978106918646265 Cl
   0.5036071151548194   0.7703615435182006   0.4991182992591728 Br
   0.5038029748492728   -0.0028095027057236   0.7271816594921804 Br
   0.5046342366695538   0.0009774665294582   0.2704938887775445 Br
   0.7340845553260008   -0.0074701424540579   0.4983250407389308 Br
   0.2735927735334728   0.0013963868557618   0.4976506173880797 Br
   0.5023788195387067   0.5013475915779080   0.2455445052981285 Br
   0.4975267482878908   0.5037562882522095   0.7573265307857665 Br
   0.4929686322483465   0.7450983793797642   0.0008582515540297 Br
   0.5050505393035579   0.2367360533175376   0.0027188046927489 I
   0.7611639720169467   0.5115995938091462   -0.0027610867278289 I
   0.2362561098418206   0.4916068226695268   0.0072170696585483 I
