Random_composition
1.0
  10.8136816130000000  0.0062575570000000  0.0060936260000000
  0.0062060050000000  10.7722920830000000  0.0073179180000000
  0.0059738640000000  0.0072391670000000  10.8250737350000001
Cs Rb Hf Pd Sn Cl Br I
5 3 2 1 1 13 8 3
Direct
   0.7536690469810030   0.2467298173188823   0.2580704706976877 Cs
   0.2467361000434035   0.7540928169424961   0.7456594098743904 Cs
   0.2467669513787329   0.7542195992328996   0.2544524910164927 Cs
   0.7535542807360993   0.2466998427281082   0.7420506307362162 Cs
   0.2464191041414507   0.2466706220061598   0.7418021803206920 Cs
   0.7515774710975910   0.7533662158135865   0.2536257177549665 Rb
   0.7516113477723131   0.7534036185201869   0.7463447190688430 Rb
   0.2482497746365583   0.2471767437368232   0.2564498411314154 Rb
   -0.0003182135691080   -0.0001086222342873   0.0002903198666371 Hf
   -0.0001907215560235   0.5006412191868740   0.4997469433677167 Hf
   0.5003721943836459   0.0013971738003190   0.4997989692292221 Pd
   0.5001106270959921   0.5029875568334270   0.0002283301938104 Sn
   0.2243733861205745   -0.0009457859243730   0.0005874947219902 Cl
   0.7752342355820157   -0.0027414833631483   0.0001363569886499 Cl
   0.0003554217701935   0.2260311095906720   0.0006414512489440 Cl
   -0.0010175651036394   0.7738877895858862   0.0001462302534405 Cl
   -0.0001356210339584   -0.0001165989282301   0.2288780418810934 Cl
   -0.0007225962890486   -0.0007231501163168   0.7714293592462803 Cl
   0.2251591651544515   0.4992844149933817   0.4991600403033631 Cl
   0.7745161936499768   0.5013913386689023   0.4999847003150842 Cl
   -0.0006163354306845   0.5006332071359563   0.7261502651519544 Cl
   -0.0000663946318445   0.5001173373050509   0.2735649344673289 Cl
   -0.0015132876041784   0.7280141284655021   0.4998692670534256 Cl
   0.0007091607751111   0.2722189456481239   0.4991692190738841 Cl
   0.4992412703067958   0.2194688512120562   0.4991459538874228 Cl
   0.5025347635099755   0.7738154437515967   0.4999721161838963 Br
   0.5012489855276449   0.0001360086000966   0.7318910498718679 Br
   0.5001552714258416   0.0013190316603607   0.2681600753335167 Br
   0.7298956382555779   -0.0025237496597960   0.4999477038254560 Br
   0.2703712477805679   0.0022892383060460   0.4983712664084376 Br
   0.5001147876198563   0.5019887722326909   0.2515242890264762 Br
   0.5012237945140374   0.5031764279846791   0.7487203989760542 Br
   0.5021859841504399   0.7574504647749380   -0.0000141425327797 Br
   0.4982959457705365   0.2311994483604421   0.0019197718900721 I
   0.7675419117787451   0.5069633381917600   -0.0000126585269489 I
   0.2323567412830214   0.5003893795391795   0.0021359943625829 I
