Random_composition
1.0
  10.8988694779999999  0.0066941720000000  0.0289354120000000
  0.0064349880000000  10.9314495990000005  0.0380210610000000
  0.0290104290000000  0.0379976610000000  11.0070998079999995
Cs Rb Hf Pd Sn Cl Br I
5 3 2 1 1 13 8 3
Direct
   0.7635515227350532   0.2488935540770920   0.2616296004703551 Cs
   0.2397942953475060   0.7547449283225702   0.7468520676386399 Cs
   0.2424779769051973   0.7588996028761573   0.2540696169313314 Cs
   0.7587635907728023   0.2474422797857008   0.7349898689023207 Cs
   0.2438626412414747   0.2447013947917754   0.7386396116293040 Cs
   0.7541266961028187   0.7622132949159550   0.2491082049764090 Rb
   0.7500858940022773   0.7633067757519962   0.7476578177439450 Rb
   0.2625692536775723   0.2543082825934372   0.2780208622726261 Rb
   -0.0041056152323816   -0.0034982185025312   0.0010022443549863 Hf
   -0.0014117249637650   0.5059013465598206   0.4977774380589976 Hf
   0.5042683774689108   -0.0017631038567709   0.4986523169190702 Pd
   0.4987515947939758   0.5010884238611204   0.0012743142002553 Sn
   0.2208566877813056   0.0040675730905267   -0.0042877082539220 Cl
   0.7704778073522363   -0.0177268593034124   0.0050676292737692 Cl
   -0.0154648273029342   0.2202697586805503   -0.0051119195576689 Cl
   0.0055689780563212   0.7716943686548304   0.0051219868671095 Cl
   -0.0012362064796098   0.0000919955597552   0.2258726018426793 Cl
   -0.0083468950653226   -0.0070949359686182   0.7751479887226703 Cl
   0.2251402314760663   0.5076729135488935   0.4932410268401897 Cl
   0.7734624815614819   0.4982009765214023   0.5024899847542925 Cl
   0.0023616636697642   0.5009122507580707   0.7210224843494932 Cl
   -0.0052237216668110   0.5092580396884490   0.2749215208666951 Cl
   -0.0064811218421312   0.7310230432169925   0.5006053691097925 Cl
   0.0068971960082272   0.2781470334822222   0.4945975848704561 Cl
   0.5053377624921469   0.2156345256086024   0.4981683900245834 Cl
   0.5038451269027172   0.7708506375261485   0.4990381272426823 Br
   0.5038980447588147   -0.0027356722096437   0.7269311312879546 Br
   0.5046172225248922   0.0011016569833781   0.2707876605634373 Br
   0.7340744473364805   -0.0071304502956488   0.4982448107472721 Br
   0.2738233202948647   0.0012572924874992   0.4980030254503256 Br
   0.5025935737102979   0.5009659370623948   0.2455851258348260 Br
   0.4966188797992407   0.5032693165785230   0.7572144743035086 Br
   0.4915358987112600   0.7451256973333623   0.0006729053789116 Br
   0.5057448138252387   0.2361423237126498   0.0025408767285108 I
   0.7609965188070907   0.5122343570901539   -0.0033764971870662 I
   0.2361691157739663   0.4905307000443780   0.0078272981228013 I
