Random_composition
1.0
  10.8645022690000008  0.0074195750000000  0.0158995860000000
  0.0071757830000000  10.9532811900000002  0.0209542130000000
  0.0157735570000000  0.0209198630000000  11.0033757649999995
Cs Rb Hf Pd Sn Cl Br I
5 3 2 1 1 13 8 3
Direct
   0.7585325203912334   0.2480662245017615   0.2625686585785637 Cs
   0.2419218195582231   0.7565550682332911   0.7468808393619980 Cs
   0.2430183390762152   0.7573869887898802   0.2530728496603105 Cs
   0.7564930816719986   0.2474583923652508   0.7368971986868516 Cs
   0.2448432331002101   0.2475432307722650   0.7381861888431559 Cs
   0.7525271010643615   0.7599396028288153   0.2526025879417457 Rb
   0.7517703269132322   0.7599059232263476   0.7466075964242733 Rb
   0.2498952201939226   0.2475423014825918   0.2679486530599059 Rb
   -0.0023311652491069   -0.0022626512174580   0.0014699558556713 Hf
   -0.0015056302338486   0.5037162343748599   0.4978816572870843 Hf
   0.5030818127153835   -0.0017790195552869   0.4982560445538314 Pd
   0.5007803659962509   0.5032021845098007   0.0018833850801829 Sn
   0.2239257155950503   -0.0021083231749623   -0.0004004360129052 Cl
   0.7715702267912017   -0.0079920276993286   0.0025910066223034 Cl
   -0.0044086739463894   0.2216811778380008   -0.0001704075701855 Cl
   0.0003386181057388   0.7732222730237732   0.0027012030254901 Cl
   -0.0016270343679459   -0.0010214579760395   0.2265974848329520 Cl
   -0.0040274243917968   -0.0030731362760041   0.7758563019075976 Cl
   0.2254257779896889   0.5026235398374930   0.4966797335166411 Cl
   0.7722810390607555   0.5002032644286618   0.4996684474727789 Cl
   -0.0006365872242922   0.5014940240985906   0.7213078857235711 Cl
   -0.0019904696498135   0.5040225311369424   0.2750619734169494 Cl
   -0.0041140575492141   0.7287958753424798   0.4987782099802138 Cl
   0.0021732803201414   0.2764416390998033   0.4966987355043656 Cl
   0.5044644509506481   0.2151679294426371   0.4977209418653220 Cl
   0.5020033553393752   0.7709433439977125   0.4983837651788522 Br
   0.5026585289538307   -0.0024862502907129   0.7267297060183991 Br
   0.5038566424783142   -0.0003176336281374   0.2701130641378169 Br
   0.7339536615922393   -0.0074503953117634   0.4990783442364604 Br
   0.2718099274769477   0.0020323507135202   0.4967707969911981 Br
   0.5016700284786045   0.5032337006061484   0.2455845229500169 Br
   0.5006057204100363   0.5050415087640392   0.7578472286180046 Br
   0.4980326173305641   0.7466332403213154   0.0010029990663847 Br
   0.5020651653631396   0.2390720535777694   0.0029379897299807 I
   0.7636494199865187   0.5093479914346205   -0.0003694044461790 I
   0.2372911176666598   0.4972193795558096   0.0045757165578979 I
