Random_composition
1.0
  10.8670211010000006  0.0036192750000000  0.0181606580000000
  0.0033469590000000  10.9519832590000004  0.0237768390000000
  0.0180584800000000  0.0237463580000000  11.0032616759999993
Cs Rb Hf Pd Sn Cl Br I
5 3 2 1 1 13 8 3
Direct
   0.7589023265866023   0.2481923180841848   0.2625754699540722 Cs
   0.2417534150866581   0.7563513496861382   0.7469654177693992 Cs
   0.2430255555120895   0.7575221591904822   0.2531090412634371 Cs
   0.7566102901904312   0.2475214209520195   0.7365828806910529 Cs
   0.2449772996384144   0.2473119580918170   0.7380893950879424 Cs
   0.7525626724777342   0.7603519882616688   0.2519974787040898 Rb
   0.7514981256561297   0.7603538202972381   0.7469697378106849 Rb
   0.2510651302818329   0.2482611420969298   0.2690709095181598 Rb
   -0.0025434035973330   -0.0023590660408640   0.0015015803043537 Hf
   -0.0015503194327648   0.5040314068420191   0.4978481874295455 Hf
   0.5033107415884596   -0.0017926550925117   0.4982451868234387 Pd
   0.5005567027586681   0.5033446540926252   0.0019422982692792 Sn
   0.2236913993802834   -0.0016473417963986   -0.0007555227409658 Cl
   0.7713113587140762   -0.0090460231598398   0.0029607188303262 Cl
   -0.0054395395010029   0.2215994037382353   -0.0005589386047266 Cl
   0.0006283081795098   0.7729554598277008   0.0030518361715220 Cl
   -0.0016940940544352   -0.0010570164624532   0.2266687798412576 Cl
   -0.0045070684811159   -0.0034647991793327   0.7758130711297212 Cl
   0.2254034074924309   0.5033416907537197   0.4962627275666598 Cl
   0.7722917823235877   0.4998415239689666   0.4998181615202084 Cl
   -0.0004487688539732   0.5015511731849052   0.7214399768167977 Cl
   -0.0023124754552702   0.5046899062707636   0.2746932822675834 Cl
   -0.0042797369361880   0.7290150140727184   0.4988242770043742 Cl
   0.0025598492621595   0.2767691476045739   0.4964830408337785 Cl
   0.5049767901566670   0.2148847558000836   0.4976806123695257 Cl
   0.5020244267274293   0.7709068222311921   0.4983679694397522 Br
   0.5028064360596644   -0.0026354205270369   0.7265655949709590 Br
   0.5041123397242285   -0.0003738103874647   0.2703338304424859 Br
   0.7339725571814838   -0.0074857719335753   0.4989228398862717 Br
   0.2721768894103418   0.0018368546962193   0.4968220855749770 Br
   0.5017700515185120   0.5030609207461686   0.2458976626068523 Br
   0.5002196726754713   0.5049193009573812   0.7576671847091327 Br
   0.4972845822193557   0.7466387626383024   0.0010511678685657 Br
   0.5026068835089103   0.2384300626812293   0.0029003413721066 I
   0.7636072598345738   0.5095279442697852   -0.0006409530552617 I
   0.2370723774476692   0.4966495261812696   0.0048291002589156 I
