Random_composition
1.0
  10.8713697000000007  0.0170398040000000  0.0085098920000000
  0.0168916760000000  10.9370150979999998  0.0166588820000000
  0.0083320560000000  0.0166154990000000  10.9921906870000008
Cs Rb Hf Pd Sn Cl Br I
5 3 2 1 1 13 8 3
Direct
   0.7584445757999486   0.2468719225346702   0.2626649400978808 Cs
   0.2423006216917314   0.7571880470104483   0.7453367918044117 Cs
   0.2427146939868662   0.7575459373678031   0.2547521904891031 Cs
   0.7573113507877381   0.2464090307704086   0.7376409938754442 Cs
   0.2429680609641409   0.2468393792310069   0.7374954211390840 Cs
   0.7530696728790960   0.7580943047569084   0.2551222531250386 Rb
   0.7530742532140521   0.7581725667860598   0.7446633109987860 Rb
   0.2465322264051622   0.2454710670466084   0.2641132096873010 Rb
   -0.0013067253156342   -0.0013472584576422   0.0010383338713799 Hf
   -0.0010310328715637   0.5022588217704255   0.4986459805519430 Hf
   0.5018646924022113   -0.0007185218092498   0.4987396335766531 Pd
   0.5007610289863220   0.5037638275423640   0.0014770882373632 Sn
   0.2247644811585108   -0.0024427970294577   0.0004192042276721 Cl
   0.7729376058967393   -0.0048104732720071   0.0012947848125047 Cl
   -0.0015610217756427   0.2230050490529428   0.0004219604136443 Cl
   -0.0003428863082035   0.7740540442542901   0.0015090752528715 Cl
   -0.0011178467055335   -0.0009598055154463   0.2266832493170304 Cl
   -0.0022370727855062   -0.0016384402761147   0.7750453548724016 Cl
   0.2255602357954158   0.5003322191818603   0.4980568193588995 Cl
   0.7727434432103101   0.5012776328792579   0.4996277328334885 Cl
   -0.0008211485006321   0.5007960219221262   0.7222376787403146 Cl
   -0.0009457218124234   0.5017527880224210   0.2755437468059682 Cl
   -0.0030449601547768   0.7279328320656333   0.4989023135865432 Cl
   0.0009922821844635   0.2748930135931438   0.4979719058170395 Cl
   0.5020726322020832   0.2161894249624310   0.4981960464423398 Cl
   0.5022603177778646   0.7716217761032893   0.4990862712481153 Br
   0.5019228014228111   -0.0011914475422211   0.7275263654959526 Br
   0.5022506827404490   0.0008869476020576   0.2703010901085826 Br
   0.7326508878298215   -0.0058709774738276   0.4993375006206190 Br
   0.2707195716925365   0.0021815777238304   0.4969482443110326 Br
   0.5013930001062692   0.5035970763216148   0.2454054803324895 Br
   0.5013420819525386   0.5047030466383678   0.7572681444084685 Br
   0.4996197889750962   0.7473132432288553   0.0006230683777049 Br
   0.5008841609550879   0.2387346241409429   0.0024581522211800 I
   0.7633462128325298   0.5072478191041033   0.0003414992255741 I
   0.2379084733794500   0.4998424597211462   0.0031029854741249 I
