Random_composition
1.0
  10.9231431790000002  0.0027784120000000  0.0196312760000000
  0.0029043900000000  10.8785944620000006  0.0278349490000000
  0.0194593700000000  0.0273561130000000  11.0605297199999999
Cs Rb Pd Pt Cl Br I
6 2 3 1 8 11 5
Direct
   0.7590532866810785   0.2450812451787717   0.2559413575238826 Cs
   0.2359059262767018   0.7606478000101894   0.7470217505035537 Cs
   0.2435300179512286   0.7564303219677754   0.2564202680492674 Cs
   0.7618804982675624   0.2377758751917654   0.7466653987979247 Cs
   0.2376783374097518   0.2390078279093731   0.7482933918881626 Cs
   0.7567432955278166   0.7549285741173780   0.2549941853187430 Cs
   0.7641287413315121   0.7639653673465133   0.7489193058957336 Rb
   0.2435557641683103   0.2444733635215253   0.2572267204184811 Rb
   -0.0005155057574741   -0.0005484339927711   0.0006442173972137 Pd
   0.0001187280778764   0.4997679622494847   0.4995842688694738 Pd
   0.4997337745404787   0.0002370730918187   0.4997973089328722 Pd
   0.5003294100097799   0.5002537571831046   -0.0006533721928347 Pt
   0.2150963468030764   -0.0001776677381877   -0.0009084257836298 Cl
   0.7838361025013710   -0.0010886430876667   0.0020137009728912 Cl
   0.0002709882901535   0.2159335412229990   -0.0008838472659742 Cl
   -0.0014750392737088   0.7829467852276708   0.0019570195654758 Cl
   0.0021997051605974   0.0018213737085407   0.2131115035904977 Cl
   -0.0032639119761612   -0.0029580081889664   0.7873209178234482 Cl
   0.2153281809662779   0.5030235445208810   0.5019932443471917 Cl
   0.7849765875256201   0.4962465482406506   0.4972950708363579 Cl
   -0.0047540771760584   0.5002370359063830   0.7269804846398263 Br
   0.0049815124914302   0.4994543703617377   0.2721370491129187 Br
   -0.0051359334165713   0.7306978863505442   0.5014707276176862 Br
   0.0053048657092655   0.2688465263243869   0.4976192523053997 Br
   0.4999000994751204   0.2311961562313195   0.4994074542351197 Br
   0.4992986683088821   0.7693806147413624   0.5012791068982437 Br
   0.4999150769120344   -0.0020125561238240   0.7272528759631274 Br
   0.4997308399038355   0.0024800045895710   0.2724282372937619 Br
   0.7297502854606598   -0.0028919539626919   0.5016373273780331 Br
   0.2697290324800765   0.0031805277712612   0.4975454597928484 Br
   0.4998549165723034   0.4997611558794198   0.2292816391335303 Br
   0.5014016169888186   0.5012546298505222   0.7570907236269461 I
   0.5015787955885614   0.7490272987629105   -0.0032101327270445 I
   0.4986783341340661   0.2514890623717396   0.0028127154439958 I
   0.7478966243883900   0.5019569492495206   -0.0030725572821292 I
   0.2527590090345845   0.4981725428156699   0.0025831864777704 I
