Random_composition
1.0
  10.9231430029999999  0.0022573610000000  0.0208710730000000
  0.0023833290000000  10.8865086190000007  0.0299631460000000
  0.0207112940000000  0.0295369840000000  11.0614879169999991
Cs Rb Pd Pt Cl Br I
6 2 3 1 8 11 5
Direct
   0.7593506212900417   0.2451811830576177   0.2559099787846427 Cs
   0.2356761061994461   0.7603644687693719   0.7466453281117122 Cs
   0.2435980547716612   0.7565719191652085   0.2564037129203832 Cs
   0.7617941177843436   0.2378105393633067   0.7463141531581959 Cs
   0.2375454241012401   0.2390208049290663   0.7482727838193451 Cs
   0.7567004514963644   0.7548100831424130   0.2551167063679773 Cs
   0.7640541219812979   0.7643206424006405   0.7496362136689855 Rb
   0.2441127225268419   0.2447221430904818   0.2572784494815862 Rb
   -0.0005908303513139   -0.0006375235828141   0.0007360161251969 Pd
   0.0001366434325065   0.4997005442795536   0.4995570748893507 Pd
   0.4996846952827870   0.0002772976193298   0.4998217940501247 Pd
   0.5003800102474411   0.5002890921028974   -0.0007127163081185 Pt
   0.2149367972507141   -0.0004225818659647   -0.0011764511068768 Cl
   0.7838285115383296   -0.0010529505565585   0.0024908229195021 Cl
   0.0000558284342356   0.2156810769118573   -0.0011520736533725 Cl
   -0.0014397891552712   0.7830105158696116   0.0024552385485400 Cl
   0.0022629847222454   0.0018386141434538   0.2132513904202139 Cl
   -0.0034633628935158   -0.0031350637526048   0.7874100017852701 Cl
   0.2153453879891928   0.5035632737947607   0.5026907060349786 Cl
   0.7850073149169609   0.4955229358506088   0.4964367063595640 Cl
   -0.0054155659097075   0.5001323069226081   0.7268025379283880 Br
   0.0057175470479928   0.4994520775199241   0.2721248294737388 Br
   -0.0055533602661254   0.7305611969350284   0.5011266146449121 Br
   0.0057419229031873   0.2688405047956905   0.4977680122174128 Br
   0.5000457724800411   0.2311543843081084   0.4996115745984106 Br
   0.4990602743894541   0.7695085322094931   0.5011402825440503 Br
   0.4997395726340516   -0.0020881788766658   0.7270506940524032 Br
   0.4998055705197128   0.0026960011986382   0.2725978424783326 Br
   0.7296692816989411   -0.0028803924695302   0.5014151230280556 Br
   0.2697020944601295   0.0032316143496209   0.4976874937507285 Br
   0.5000355384318064   0.4999057945000090   0.2292887711399148 Br
   0.5014166733590472   0.5012743427652345   0.7570396679472844 I
   0.5013274002413224   0.7487406521159214   -0.0031567060873571 I
   0.4989886657559434   0.2518378413736371   0.0026668850829819 I
   0.7479445398464986   0.5018338838250882   -0.0029550208132172 I
   0.2527974221418899   0.4983625558110673   0.0024066686803184 I
