Random_composition
1.0
  10.7850373319999999  0.0035545880000000  0.0152556160000000
  0.0035834060000000  10.8277360819999995  0.0203593030000000
  0.0151042350000000  0.0200334050000000  10.8764672160000000
Cs Rb Pd Pt Cl Br I
6 2 3 1 8 11 5
Direct
   0.7570876272551396   0.2447710556747695   0.2551974587583892 Cs
   0.2395721106194424   0.7586920774891774   0.7452970322994240 Cs
   0.2430652780854194   0.7553012394714925   0.2552496529920971 Cs
   0.7602717551028899   0.2412191926965178   0.7452447904675393 Cs
   0.2397552390373411   0.2414030740902969   0.7452049849316370 Cs
   0.7570467678155064   0.7552589606421708   0.2552891655029640 Cs
   0.7582821644826282   0.7570439748039244   0.7458670990960901 Rb
   0.2444020866858750   0.2457312415195481   0.2544859947485046 Rb
   -0.0000103790558250   -0.0000094737492761   0.0001305893898832 Pd
   0.0000310009049104   0.4999937830767014   0.5001228702397372 Pd
   0.4999896999923572   0.0000504148370518   0.5000080646335134 Pd
   0.5000680506194635   0.5000573162417314   0.0016880789563857 Pt
   0.2199915140661218   0.0006754486775166   0.0007208353703608 Cl
   0.7800104893859564   -0.0006991022267111   -0.0006449987048793 Cl
   0.0007321521535823   0.2183561230330767   0.0007450261133721 Cl
   -0.0007585549647227   0.7816440822902262   -0.0006557420111335 Cl
   0.0008718693805528   0.0008356417677491   0.2180753767659386 Cl
   -0.0009599961938302   -0.0009250877920457   0.7816953161931873 Cl
   0.2198248011130964   0.4992932132171305   0.4993396355246469 Cl
   0.7802292116410140   0.5006330936591489   0.5008431941849737 Cl
   -0.0013777683480866   0.5012286300741428   0.7324553271703532 Br
   0.0013855652931238   0.4987596154626122   0.2674328351703808 Br
   -0.0017485493061925   0.7327739267697037   0.5013390653878627 Br
   0.0017094932104088   0.2672195284872670   0.4982374708313595 Br
   0.4986201764792577   0.2326360144066066   0.4984795915144295 Br
   0.5012583428875552   0.7674788081904494   0.5011753865798700 Br
   0.5012076664817033   -0.0012497889550657   0.7323167582778031 Br
   0.4987804566017765   0.0012540998691503   0.2674522164703733 Br
   0.7344521722641413   -0.0015564712646877   0.5012819935078874 Br
   0.2655334387728392   0.0015241809258902   0.4983031700393281 Br
   0.4986761887261775   0.4987164844466602   0.2384486447698134 Br
   0.5020159530767915   0.5019255777607831   0.7541329753108414 I
   0.5020693937282810   0.7526045992956183   -0.0009297028852760 I
   0.4978316021960271   0.2474675226406990   0.0033638685467933 I
   0.7540143493873125   0.5020519169780906   -0.0007920200834659 I
   0.2460654188122947   0.4978388130987890   0.0033972859463342 I
