Random_composition
1.0
  10.9157792249999996  0.0087611400000000  0.0160522530000000
  0.0088320170000000  10.9243052100000000  0.0210643750000000
  0.0158679060000000  0.0206268310000000  11.0442827250000004
Cs Rb Pd Pt Cl Br I
6 2 3 1 8 11 5
Direct
   0.7584375221361429   0.2439012307243911   0.2551888440562388 Cs
   0.2371648856219544   0.7607840051395497   0.7468667486212889 Cs
   0.2422819161510004   0.7564168261580682   0.2554468634994235 Cs
   0.7621676763352501   0.2387870485554138   0.7465976557291664 Cs
   0.2379267527898012   0.2395313391081071   0.7466990267235779 Cs
   0.7579690767642520   0.7560806478062185   0.2551805846058663 Cs
   0.7617610309058365   0.7605278252417438   0.7460196538836370 Rb
   0.2427544113724271   0.2442458793389329   0.2558154683582843 Rb
   -0.0001166118600375   -0.0001202951820306   0.0002503019792899 Pd
   0.0000251148996645   0.4999531837376365   0.4997670317702396 Pd
   0.4999297184068110   0.0000572659222502   0.4995656062768036 Pd
   0.5001169921908297   0.5000903787278835   0.0004108826578720 Pt
   0.2156315226603775   0.0002855123650823   0.0000871594949101 Cl
   0.7841623109744754   -0.0005266000544699   0.0001252703074201 Cl
   0.0004895892159637   0.2155251767820800   0.0001405467320070 Cl
   -0.0007281612745990   0.7842625997501877   0.0001151443838461 Cl
   0.0010917038179218   0.0009309764054376   0.2133223971100390 Cl
   -0.0014572822923337   -0.0013107220080367   0.7864268978322398 Cl
   0.2155877977856107   0.5003531239985336   0.4998812364512251 Cl
   0.7844719257554907   0.4994331545876038   0.5001698479174626 Cl
   -0.0021344569149949   0.5006907397085891   0.7277047976279661 Br
   0.0021639941203975   0.4992873363615719   0.2721596469573371 Br
   -0.0027689051987231   0.7299842002349107   0.5014855128338775 Br
   0.0027754153944801   0.2699472734061854   0.4978602336289478 Br
   0.4989842991903219   0.2300199587170351   0.4988694230587499 Br
   0.5006733085789481   0.7701549722117781   0.5015581699750048 Br
   0.5006217935173348   -0.0013935806423963   0.7275903240894614 Br
   0.4993585640079917   0.0014756615334938   0.2721926956197975 Br
   0.7300765199590734   -0.0019850257134629   0.5012269767223176 Br
   0.2698115027079958   0.0020347161676742   0.4978119624759829 Br
   0.4992081907486673   0.4992640973375569   0.2309122250084444 Br
   0.5015076462754724   0.5013372611502791   0.7584765371270600 I
   0.5014027555153844   0.7478213488595462   -0.0010431671751516 I
   0.4984667404337372   0.2523189898389221   0.0030643496541677 I
   0.7478216207132292   0.5014265656828768   -0.0009024089039757 I
   0.2523650477993046   0.4984058841053066   0.0029572191126036 I
