Random_composition
1.0
  10.9237252789999992  0.0091559510000000  0.0178006100000000
  0.0092542550000000  10.9008582310000008  0.0233648200000000
  0.0176272400000000  0.0228811430000000  11.0578001570000009
Cs Rb Pd Pt Cl Br I
6 2 3 1 8 11 5
Direct
   0.7588404884316791   0.2438315167168579   0.2552013110065470 Cs
   0.2363829942306109   0.7614645302479064   0.7477247408553833 Cs
   0.2422994621613898   0.7566747395550369   0.2555578245727022 Cs
   0.7626422623529802   0.2378974941726144   0.7473589640844639 Cs
   0.2374601068518005   0.2389075468570556   0.7477130094618707 Cs
   0.7579337299740747   0.7560815689234528   0.2548999409904666 Cs
   0.7631120400751308   0.7620481256139046   0.7466585492301017 Rb
   0.2424150716396619   0.2438703830331156   0.2562803483525390 Rb
   -0.0002089572475997   -0.0002141136777814   0.0002594297467201 Pd
   0.0000314675105163   0.4999215576245644   0.4997864660406794 Pd
   0.4998816373239021   0.0000915448639101   0.4997648342830843 Pd
   0.5001166439069137   0.5000775097459360   0.0003023564921207 Pt
   0.2153592756092626   0.0000179451677107   -0.0003250145335952 Cl
   0.7842327234650721   -0.0004738526813065   0.0006557588778972 Cl
   0.0003064590324135   0.2157658498115163   -0.0002511155348519 Cl
   -0.0007574967594858   0.7838201779020035   0.0006248680964784 Cl
   0.0013097054103206   0.0010894860078132   0.2129122607908522 Cl
   -0.0018551955722378   -0.0016556776138337   0.7869053143191364 Cl
   0.2153406035601617   0.5011696137995305   0.5003876891897211 Cl
   0.7847407985939345   0.4985173781319662   0.4994368941267361 Cl
   -0.0026538883708340   0.5002525453117164   0.7273335397605994 Br
   0.0026957403922382   0.4996823884176504   0.2722084847236644 Br
   -0.0033293933061345   0.7304430465095343   0.5014779175059957 Br
   0.0034044615389100   0.2694306675573211   0.4979348623851177 Br
   0.4993615594383120   0.2305587047965348   0.4991059721314190 Br
   0.5001826454609647   0.7696583065958832   0.5014725747683146 Br
   0.5001593306071745   -0.0014293045136175   0.7272893468932572 Br
   0.4997622756628212   0.0015763935149115   0.2722835511348524 Br
   0.7299519947200377   -0.0021440007466289   0.5012006388907640 Br
   0.2698433123467218   0.0022841634990003   0.4977891784273456 Br
   0.4995383298029198   0.4995780643097806   0.2301719442679001 Br
   0.5013395059676780   0.5011652698637350   0.7577507366464571 I
   0.5012369810001137   0.7482364006952548   -0.0016707421524848 I
   0.4987291709505682   0.2518958346782609   0.0027479982695330 I
   0.7476723980995155   0.5013109477199432   -0.0015393717178968 I
   0.2525246807476271   0.4985954820103116   0.0025886987055497 I
