Random_composition
1.0
  10.9093822189999994  0.0074952360000000  0.0151950480000000
  0.0075563900000000  10.9287351229999992  0.0198761290000000
  0.0149998740000000  0.0194458890000000  11.0374547080000003
Cs Rb Pd Pt Cl Br I
6 2 3 1 8 11 5
Direct
   0.7582187474679245   0.2439910993709379   0.2552145676421267 Cs
   0.2375788302558250   0.7603986040807243   0.7463972822967212 Cs
   0.2423220737442016   0.7562583173726604   0.2554217880088968 Cs
   0.7618817728992666   0.2392581898978028   0.7461799718438994 Cs
   0.2381990702456391   0.2398662112853042   0.7461913239803634 Cs
   0.7579363395501283   0.7560311316039682   0.2553293511226987 Cs
   0.7610735985773545   0.7597763003382939   0.7457429503575199 Rb
   0.2429714772327149   0.2444718881132653   0.2555995885456280 Rb
   -0.0000707451653789   -0.0000734306867481   0.0001560626557079 Pd
   0.0000213752013633   0.4999662098988097   0.4999288720360291 Pd
   0.4999506592111531   0.0000607565470219   0.4997847931491316 Pd
   0.5001020579047142   0.5000779946609194   0.0011145060902838 Pt
   0.2158245115929537   0.0004260568504813   0.0003127594103145 Cl
   0.7840577939913534   -0.0005805249924598   -0.0001179852836806 Cl
   0.0005909667587901   0.2153944308949935   0.0003542313731579 Cl
   -0.0007430348236152   0.7844812597581008   -0.0001196979106303 Cl
   0.0010157283963560   0.0008803225563032   0.2134937022070516 Cl
   -0.0013057775733368   -0.0011822230935051   0.7862839367378193 Cl
   0.2155848859475364   0.4999525120621823   0.4996203565564231 Cl
   0.7844729734294423   0.4998764933392502   0.5004862472363731 Cl
   -0.0019270517198076   0.5009345230143228   0.7278519237429422 Br
   0.0019550076412778   0.4990572704708723   0.2720691541956888 Br
   -0.0025470666121932   0.7297923345387348   0.5014927265978257 Br
   0.0025181946657423   0.2701668042907882   0.4977752580651930 Br
   0.4987801210534542   0.2297844648661064   0.4987158663005472 Br
   0.5009261729792024   0.7703711002327918   0.5015836126945424 Br
   0.5008741521303117   -0.0014047261656040   0.7275424747985203 Br
   0.4991260892941627   0.0014555553734893   0.2721167971934524 Br
   0.7301995450607839   -0.0019490278596148   0.5012571710017826 Br
   0.2697328403220585   0.0019488563110501   0.4977789541317399 Br
   0.4990244248961954   0.4990825012618446   0.2313719547934209 Br
   0.5016057081889573   0.5014420166124515   0.7581740149668196 I
   0.5015173048210936   0.7474686361974117   -0.0008088243886184 I
   0.4983015405296953   0.2527284667536936   0.0032213061350311 I
   0.7480387130061193   0.5015215467544732   -0.0006618184448144 I
   0.2521928099890187   0.4982679685253903   0.0031424164941618 I
