Random_composition
1.0
  10.7912557780000000  0.0038624530000000  0.0145179710000000
  0.0038894340000000  10.8434937250000001  0.0192218280000000
  0.0143237500000000  0.0188579150000000  10.9099418759999995
Cs Rb Pd Pt Cl Br I
6 2 3 1 8 11 5
Direct
   0.7573579204662279   0.2445855502125731   0.2552170625603230 Cs
   0.2391009132557776   0.7590872433164690   0.7455078851830957 Cs
   0.2428766965617876   0.7555274766166230   0.2553012046824163 Cs
   0.7606562655302768   0.2407660266704081   0.7454218311770556 Cs
   0.2393823262773848   0.2410458525952558   0.7453743938177598 Cs
   0.7572829703548956   0.7554548366700060   0.2553436669533137 Cs
   0.7589265923750184   0.7576594137955159   0.7457655062951879 Rb
   0.2440555790201368   0.2454331629211897   0.2547675474103718 Rb
   -0.0000177513998280   -0.0000177134624745   0.0001137126314271 Pd
   0.0000244721905740   0.4999884648425809   0.4999558214365192 Pd
   0.4999817243033629   0.0000510444593393   0.4998083730082574 Pd
   0.5000740946195925   0.5000613559258784   0.0019255689592280 Pt
   0.2190317997364735   0.0006309462705963   0.0006542633154041 Cl
   0.7809573402423473   -0.0006765503770781   -0.0005430745232408 Cl
   0.0007091929751999   0.2178305790626050   0.0006757691394570 Cl
   -0.0007565684848139   0.7821550348911743   -0.0005456917899615 Cl
   0.0008950634734130   0.0008322811791401   0.2169755837779659 Cl
   -0.0010284971205148   -0.0009681274697217   0.7827936791907318 Cl
   0.2187525676616862   0.4993840774014470   0.4993642627656437 Cl
   0.7813075530730802   0.5005220616189953   0.5008189881050983 Cl
   -0.0014973925333876   0.5011953995365606   0.7316086499870086 Br
   0.0015100261346515   0.4987951594293509   0.2684276741349877 Br
   -0.0019506847241181   0.7323840982267612   0.5013895235181366 Br
   0.0019029021461370   0.2676065354665569   0.4980859246261866 Br
   0.4986107547986180   0.2322520222883426   0.4985064940685544 Br
   0.5012273751572451   0.7678798613007368   0.5013054334336835 Br
   0.5011687937590070   -0.0013008559165299   0.7312622873239203 Br
   0.4988249517348249   0.0013112203917798   0.2685928947256838 Br
   0.7335694911992720   -0.0016790605372664   0.5013016930955768 Br
   0.2664118342629732   0.0016421772153429   0.4981493702568406 Br
   0.4987136480041878   0.4987604158787382   0.2348245876936825 Br
   0.5019321298705509   0.5018207037968356   0.7567993621306575 I
   0.5019582207217987   0.7489844236002603   -0.0008849052329061 I
   0.4979017722847485   0.2511491242959413   0.0033367667448015 I
   0.7502304268304261   0.5019458223644706   -0.0007479544745148 I
   0.2499148935519672   0.4979005638876112   0.0033447642744154 I
