Random_composition
1.0
  10.5600734890000005  0.0027311070000000  0.0153060020000000
  0.0027351590000000  10.6545848060000008  0.0206257450000000
  0.0152050350000000  0.0204852460000000  10.6193007050000006
Cs Rb Pd Pt Cl Br I
6 2 3 1 8 11 5
Direct
   0.7557729608893395   0.2456812730618120   0.2545219175295623 Cs
   0.2414975679670353   0.7571225447589103   0.7456138253502591 Cs
   0.2442489347728321   0.7543258625251221   0.2545273994506893 Cs
   0.7584832347362789   0.2428733333157281   0.7456085321064359 Cs
   0.2415294502238765   0.2429082521405542   0.7455992824797560 Cs
   0.7557737670154927   0.7543233020230337   0.2545397027756008 Cs
   0.7564050093706298   0.7553978855503001   0.7465540377362224 Rb
   0.2456204722463249   0.2466764713452354   0.2535386012091547 Rb
   -0.0000000284640163   -0.0000000380143180   0.0000197754283053 Pd
   0.0000042152876752   0.4999963547114606   0.4996974175210146 Pd
   0.4999920011109916   0.0000082906602923   0.4996832746182194 Pd
   0.5000042201080512   0.4999983414819840   0.0073078348820698 Pt
   0.2212804314871111   0.0006374088540153   0.0006996632308487 Cl
   0.7787267876350371   -0.0006272218545180   -0.0006833083507607 Cl
   0.0006539205045948   0.2207137697021395   0.0007145108110566 Cl
   -0.0006468612204726   0.7792923122281092   -0.0006962401629574 Cl
   0.0007337203805359   0.0007315951259911   0.2203124052112315 Cl
   -0.0007473006483574   -0.0007450228882566   0.7795830473977835 Cl
   0.2213487530205048   0.4993167559238714   0.4995181323911533 Cl
   0.7787062961204823   0.5006468116958477   0.5008168667732500 Cl
   -0.0010421617646876   0.5010873708315458   0.7329645206611147 Br
   0.0010440605419712   0.4988995103896666   0.2670217111556343 Br
   -0.0012021301487448   0.7328776472279904   0.5011527971736192 Br
   0.0011974508675774   0.2671177533719087   0.4987967019951342 Br
   0.4988658119983997   0.2329899407035644   0.4987229305302269 Br
   0.5010918058506337   0.7670971137172882   0.5008586239445507 Br
   0.5010798702603989   -0.0010008723246132   0.7334730723439834 Br
   0.4989041278306091   0.0010039776538465   0.2665564469138500 Br
   0.7341486092988491   -0.0011451440708347   0.5011409778481613 Br
   0.2658430502331612   0.0011417897453400   0.4988301586547185 Br
   0.4988645043900238   0.4988931801917642   0.2439731586244033 Br
   0.5018366539826855   0.5017884288628167   0.7455151094144284 I
   0.5018872519832156   0.7603290828455721   -0.0010447242591278 I
   0.4981085772638611   0.2396540062754526   0.0027179667946427 I
   0.7609759138273304   0.5018722945543982   -0.0009387613276968 I
   0.2390092509127676   0.4981151605837167   0.0027833968041568 I
