Random_composition
1.0
  10.8876831860000003  0.0055879870000000  0.0146925910000000
  0.0056334090000000  10.9276272599999995  0.0191209870000000
  0.0144843430000000  0.0187114710000000  11.0193861630000001
Cs Rb Pd Pt Cl Br I
6 2 3 1 8 11 5
Direct
   0.7579773827583302   0.2441461817109488   0.2552424418889372 Cs
   0.2380353071909228   0.7599912116679027   0.7460225770208783 Cs
   0.2424484088232607   0.7560576534352590   0.2554036308826264 Cs
   0.7615280611898076   0.2397344360788213   0.7458543605834242 Cs
   0.2385387219851908   0.2402233920715760   0.7458184891785166 Cs
   0.7577968747418641   0.7559011848418529   0.2554073686227429 Cs
   0.7603926211178297   0.7590768830743297   0.7456226183082020 Rb
   0.2432640941576658   0.2447431836918282   0.2553704940820165 Rb
   -0.0000424324006745   -0.0000459998400727   0.0001553174540701 Pd
   0.0000242318714789   0.4999756412056391   0.4998227246748692 Pd
   0.4999652648927791   0.0000501516106003   0.4995952745884752 Pd
   0.5001064348780048   0.5000890294845503   0.0015445456409723 Pt
   0.2162122079648785   0.0005246093911394   0.0004848955586799 Cl
   0.7837294503437470   -0.0006281106834438   -0.0003051899736153 Cl
   0.0006565044352002   0.2156311385886209   0.0005143003400793 Cl
   -0.0007599360850173   0.7843056584485617   -0.0003017893029563 Cl
   0.0009757735731583   0.0008630580076635   0.2134183452734885 Cl
   -0.0012126614124974   -0.0011069559947341   0.7863186619526167 Cl
   0.2159606063010477   0.4996672424447432   0.4994709112539152 Cl
   0.7840979429841758   0.5001909024963298   0.5006944437977259 Cl
   -0.0017789576875919   0.5010972042401109   0.7287760448340046 Br
   0.0018019831088621   0.4988981376816963   0.2713330901709917 Br
   -0.0023741413173465   0.7304787566407728   0.5014941236956674 Br
   0.0023229671546143   0.2694988290328717   0.4977838787794951 Br
   0.4986486862165204   0.2305782982667968   0.4986171273864533 Br
   0.5010992411569267   0.7695801312706682   0.5015662706033244 Br
   0.5010457534759233   -0.0014009779417311   0.7284049228353467 Br
   0.4989583162213930   0.0014314618009447   0.2714562857062860 Br
   0.7311463261533023   -0.0019067201485836   0.5013123183747209 Br
   0.2688137236390775   0.0018762262234242   0.4978321363331422 Br
   0.4988754385320386   0.4989305174662613   0.2327752331519165 Br
   0.5017070443843722   0.5015588933663904   0.7571736028755096 I
   0.5016503174768544   0.7474468176825660   -0.0007180494182494 I
   0.4981434234657018   0.2527707037136238   0.0033321054854469 I
   0.7485561592113570   0.5016475820932054   -0.0005726477219572 I
   0.2516886574524329   0.4981238904280345   0.0032794404814297 I
