Random_composition
1.0
  10.9227611650000007  0.0027475710000000  0.0209861180000000
  0.0028711500000000  10.8885542829999995  0.0302566850000000
  0.0208280330000000  0.0298412500000000  11.0616490689999996
Cs Rb Pd Pt Cl Br I
6 2 3 1 8 11 5
Direct
   0.7594743938167202   0.2451233113603164   0.2558474730378737 Cs
   0.2355958348514295   0.7603400244245336   0.7465858243995241 Cs
   0.2435380911308524   0.7566643911418891   0.2563419709901246 Cs
   0.7618205631686548   0.2377971731915289   0.7462628165214097 Cs
   0.2374855958997391   0.2390039682041718   0.7482866776779542 Cs
   0.7567545236915639   0.7548391827047549   0.2551283006076370 Cs
   0.7639944452035071   0.7643876533155992   0.7497814145289222 Rb
   0.2442486097425075   0.2447664015926224   0.2572499210735029 Rb
   -0.0006037882644524   -0.0006541339693753   0.0008120365273924 Pd
   0.0001421093780493   0.4996783275808971   0.4994769200733972 Pd
   0.4996730747867544   0.0002877272508502   0.4997839889634187 Pd
   0.5003943224395989   0.5003038254067276   -0.0006779160593595 Pt
   0.2149389565134019   -0.0004742584329265   -0.0012255301837558 Cl
   0.7838072563567918   -0.0010368907800646   0.0025694452182726 Cl
   0.0000069571678570   0.2155598980264676   -0.0011953257470642 Cl
   -0.0014200912616592   0.7831065434482978   0.0025399101002916 Cl
   0.0022709304525361   0.0018342668700185   0.2131695580326190 Cl
   -0.0034993225783609   -0.0031684046834400   0.7874657068113330 Cl
   0.2153164993718581   0.5036428843110965   0.5028448058456250 Cl
   0.7850425370800973   0.4953977145146725   0.4962303430387399 Cl
   -0.0055979026031322   0.5001174108328894   0.7268396902785522 Br
   0.0059085832093960   0.4994348030046039   0.2721334532930668 Br
   -0.0056526853628016   0.7304187041614639   0.5010454177943980 Br
   0.0058428244884167   0.2689502330925273   0.4977919481051000 Br
   0.5000392947491095   0.2311056123426050   0.4996473484347324 Br
   0.4990471846806898   0.7695810445203118   0.5011135257565910 Br
   0.4997052137046361   -0.0021134500273710   0.7271625616793215 Br
   0.4998119167029916   0.0027473427188911   0.2725134149394550 Br
   0.7297034074284338   -0.0028705296801250   0.5013532047803767 Br
   0.2696510709456073   0.0032333595062841   0.4977172215212893 Br
   0.5000300852436128   0.4998986909637611   0.2292832665891477 Br
   0.5014448557099231   0.5012952264678806   0.7570714850100925 I
   0.5012491345873961   0.7487536719423072   -0.0030903238086083 I
   0.4990543921330812   0.2518608101478738   0.0026376096601685 I
   0.7479838568065543   0.5017856631856238   -0.0028675334058874 I
   0.2527968571614627   0.4984008542651848   0.0023680752762044 I
