Random_composition
1.0
  10.9187168250000006  0.0095777620000000  0.0172050270000000
  0.0096659390000000  10.9064836120000006  0.0225917850000000
  0.0170297940000000  0.0221257540000000  11.0504475269999993
Cs Rb Pd Pt Cl Br I
6 2 3 1 8 11 5
Direct
   0.7587134743266788   0.2438235180317885   0.2551786159611912 Cs
   0.2366333443057767   0.7612660189676282   0.7474647826264275 Cs
   0.2422643289796067   0.7566019254509619   0.2555008601009029 Cs
   0.7625130724598460   0.2381799790639876   0.7471290199740485 Cs
   0.2375939628098422   0.2390998046979453   0.7473770159891139 Cs
   0.7579745149982100   0.7561079043157585   0.2549894195604592 Cs
   0.7626635926473131   0.7615296260389590   0.7464153844050903 Rb
   0.2425019565768674   0.2439769581297894   0.2561123307804039 Rb
   -0.0001741874821224   -0.0001772368642634   0.0002123896784931 Pd
   0.0000252718323590   0.4999348274654816   0.4998137072336989 Pd
   0.4999002312863962   0.0000756703061419   0.4997243306213226 Pd
   0.5001147253181121   0.5000817395522981   0.0003038585991390 Pt
   0.2153533501159311   0.0001019207060869   -0.0001898079483966 Cl
   0.7843116292303511   -0.0004733271649265   0.0004693557012555 Cl
   0.0003606993629728   0.2155698669325942   -0.0001209284895687 Cl
   -0.0007277919952453   0.7840893001510284   0.0004460040897958 Cl
   0.0012147556908996   0.0010174277677126   0.2129557295156014 Cl
   -0.0016902681918836   -0.0015113778844802   0.7868661612652983 Cl
   0.2154374030939344   0.5008882144462834   0.5002084685988986 Cl
   0.7846341809942401   0.4988371000740670   0.4997029046763941 Cl
   -0.0024439368910166   0.5003829523284040   0.7274300415691688 Br
   0.0024797769334731   0.4995720192470937   0.2721809324347430 Br
   -0.0031036899292720   0.7302357617385185   0.5014680225575380 Br
   0.0031563959328343   0.2696591062802164   0.4979331018156672 Br
   0.4992431954994551   0.2303443509568331   0.4990328766156482 Br
   0.5003443503877406   0.7698504957575937   0.5014972698182184 Br
   0.5003010631226723   -0.0013988537344720   0.7274242866330261 Br
   0.4996466180040904   0.0015222210449819   0.2721907116799624 Br
   0.7299845768780102   -0.0020630564950504   0.5011839737931014 Br
   0.2698431861683577   0.0021749479971721   0.4978122552319930 Br
   0.4994405184753969   0.4994882457248723   0.2303248601577920 Br
   0.5013880512969782   0.5012140825274062   0.7581503159739431 I
   0.5012734911464879   0.7480917587974567   -0.0014275577605377 I
   0.4986616830466898   0.2520171734866308   0.0028367171920420 I
   0.7476397040076973   0.5013263733323833   -0.0012921665751537 I
   0.2525292212586081   0.4985595630920079   0.0026950833799374 I
