Random_composition
1.0
  10.9231224959999995  0.0020277020000000  0.0206450810000000
  0.0021557350000000  10.8815972930000004  0.0294585450000000
  0.0204817200000000  0.0290103490000000  11.0615709720000002
Cs Rb Pd Pt Cl Br I
6 2 3 1 8 11 5
Direct
   0.7592122742637193   0.2452236298137788   0.2559692539997110 Cs
   0.2357710752854679   0.7604121584057777   0.7467349684936173 Cs
   0.2436461248428798   0.7564768024342338   0.2564613297037315 Cs
   0.7617757560163594   0.2378191485453756   0.7463937349064562 Cs
   0.2376160237441960   0.2390366662265162   0.7482655715454574 Cs
   0.7566534361353693   0.7547931835146177   0.2550906852835224 Cs
   0.7641132571688521   0.7642287130629358   0.7494398196208146 Rb
   0.2439387277666305   0.2446599421843403   0.2573012953127655 Rb
   -0.0005743441716781   -0.0006166398266182   0.0007304588755503 Pd
   0.0001348671009626   0.4997198850281845   0.4994486053492619 Pd
   0.4996953918105734   0.0002645980103030   0.4997360652913552 Pd
   0.5003583862679335   0.5002726780373498   -0.0007030868066978 Pt
   0.2149644956446830   -0.0003467902248713   -0.0011117537934162 Cl
   0.7838339144408306   -0.0010759462738363   0.0023657924560435 Cl
   0.0001251573826132   0.2158149523945794   -0.0010911812075919 Cl
   -0.0014661854181788   0.7829168252669424   0.0023221546969555 Cl
   0.0022554619040401   0.0018450131790392   0.2133285670159996 Cl
   -0.0034155367344740   -0.0030926109089502   0.7872870535201744 Cl
   0.2153855337966127   0.5034412964307353   0.5025039132500154 Cl
   0.7849566582426792   0.4957055666500493   0.4967189339900553 Cl
   -0.0051959025406668   0.5001594924249055   0.7268563678039967 Br
   0.0054800050553154   0.4994646448023594   0.2721705055057466 Br
   -0.0054271738260162   0.7306913947406709   0.5012522139165604 Br
   0.0056125031980091   0.2687564084601132   0.4977400561458156 Br
   0.5000355641020114   0.2311621580404080   0.4995653003022023 Br
   0.4990977703611121   0.7694714468640974   0.5011854637007264 Br
   0.4997915483677693   -0.0020607129185125   0.7269964175035332 Br
   0.4997882779995266   0.0026324188137860   0.2727184313083449 Br
   0.7296306085866914   -0.0028918877317399   0.5015066957336093 Br
   0.2697681277141718   0.0032280167241800   0.4976504274492660 Br
   0.5000196797723327   0.4998939336215608   0.2292848738837065 Br
   0.5013946261610530   0.5012575422427712   0.7569921461120642 I
   0.5014300704028739   0.7487170016513067   -0.0032281289877451 I
   0.4988941288664936   0.2518205521375608   0.0027077549208765 I
   0.7478951671087986   0.5018980069108584   -0.0030507006113221 I
   0.2528045826140181   0.4983033191005053   0.0024591026206174 I
