Random_composition
1.0
  10.9212334379999998  0.0094647240000000  0.0175789790000000
  0.0095590450000000  10.9023070480000008  0.0230800520000000
  0.0174054270000000  0.0226034690000000  11.0543142109999994
Cs Rb Pd Pt Cl Br I
6 2 3 1 8 11 5
Direct
   0.7587959466442527   0.2438199611685205   0.2551875865622840 Cs
   0.2364722646203306   0.7614005584339173   0.7476366002262420 Cs
   0.2422784484777332   0.7566518685207965   0.2555316751318550 Cs
   0.7626032608385365   0.2379965095134984   0.7472812047677191 Cs
   0.2375027989715332   0.2389736367883326   0.7475904214028257 Cs
   0.7579560740314323   0.7560990327928780   0.2549316988197622 Cs
   0.7629479961927829   0.7618556323323263   0.7465614173852537 Rb
   0.2424395544761064   0.2439037903814295   0.2562156994940240 Rb
   -0.0001952257864959   -0.0001993488496795   0.0002305012145649 Pd
   0.0000276375855553   0.4999274344290985   0.4998058728490592 Pd
   0.4998886562431569   0.0000846106038563   0.4997569645247735 Pd
   0.5001151795411712   0.5000794699430670   0.0002927929791995 Pt
   0.2153295569912878   0.0000475325754650   -0.0002764866961807 Cl
   0.7842900115914934   -0.0004683692548879   0.0005847302889807 Cl
   0.0003243233321343   0.2156618325651340   -0.0002029241742406 Cl
   -0.0007410828200309   0.7839528259553979   0.0005571901949923 Cl
   0.0012685607243118   0.0010571775612214   0.2129017915867328 Cl
   -0.0017856518863652   -0.0015951062598443   0.7869251804346450 Cl
   0.2153797038766210   0.5010648213821238   0.5003195256628531 Cl
   0.7846969689167852   0.4986386540477550   0.4995404614881013 Cl
   -0.0025667783131943   0.5002962570698511   0.7273611102634043 Br
   0.0026055820415727   0.4996477128210555   0.2721952935208110 Br
   -0.0032358777084948   0.7303523578221679   0.5014703044638674 Br
   0.0033033520426069   0.2695304340866608   0.4979405369653927 Br
   0.4993199935193056   0.2304707720421662   0.4990805473420092 Br
   0.5002405277397547   0.7697361787980653   0.5014802931618038 Br
   0.5002075742628856   -0.0014120797597115   0.7273485536018001 Br
   0.4997253186350907   0.0015507586703694   0.2722321339963940 Br
   0.7299612078132295   -0.0021066607816004   0.5011877302695410 Br
   0.2698462751322810   0.0022375023467238   0.4978015489056655 Br
   0.4995056697198697   0.4995501356337222   0.2302014859214300 Br
   0.5013551753073462   0.5011804096802309   0.7579411312234619 I
   0.5012451651145627   0.7481821373996622   -0.0015721880648880 I
   0.4987104660764669   0.2519354004836965   0.0027761556673882 I
   0.7476374386299907   0.5013100724229346   -0.0014386207112795 I
   0.2525427481652902   0.4985899263934224   0.0026227836799422 I
