Random_composition
1.0
  10.4479845709999992  0.0018019890000000  0.0122464000000000
  0.0018019890000000  10.5260851899999999  0.0164603220000000
  0.0122463990000000  0.0164603250000000  10.4259279389999993
Cs Rb Pd Pt Cl Br I
6 2 3 1 8 11 5
Direct
   0.7543245443189234   0.2467392537785676   0.2534767982087832 Cs
   0.2435575944472874   0.7554244764544593   0.7465659470971565 Cs
   0.2456635057994758   0.7532501327479664   0.2534731471551372 Cs
   0.7564565597010775   0.2445893273753017   0.7465695290473575 Cs
   0.2435509360405641   0.2445859248836034   0.7465734906549906 Cs
   0.7543348145145488   0.7532580539401303   0.2534731929351945 Cs
   0.7547693245456495   0.7540227221915428   0.7474035291374457 Rb
   0.2467700941555362   0.2475542378688221   0.2526272143507425 Rb
   -0.0000009648295823   -0.0000009603589505   0.0000067166801762 Pd
   -0.0000080808540804   0.4999959084289763   0.5000197618678313 Pd
   0.4999905817140264   -0.0000128340194015   0.5002400896214548 Pd
   0.4999656894196192   0.4999640158129360   0.0118615486521633 Pt
   0.2276767227863386   0.0004770362018576   0.0005106430471926 Cl
   0.7723295576443004   -0.0004600978504077   -0.0005285556708437 Cl
   0.0004808399929344   0.2274682969169962   0.0005140942907360 Cl
   -0.0004647376337105   0.7725369374788846   -0.0005333352980543 Cl
   0.0005307732984453   0.0005321214384013   0.2264771783253027 Cl
   -0.0005265281206656   -0.0005273057339338   0.7734606621949865 Cl
   0.2275080937187909   0.4994882321767651   0.4996468552461422 Cl
   0.7725334345125391   0.5004925901832511   0.5006135672423581 Cl
   -0.0007591380900957   0.5008154277725149   0.7348281858775088 Br
   0.0007625734354359   0.4991741416505043   0.2648238229027951 Br
   -0.0008163336168364   0.7354877957906587   0.5008574451842105 Br
   0.0008250417035279   0.2645087474727236   0.4991945107912629 Br
   0.4991742175507332   0.2355459460185312   0.4990059188193404 Br
   0.5008125888275440   0.7645148114485049   0.5005676923221223 Br
   0.5008131080791836   -0.0007433254223835   0.7352131265990925 Br
   0.4991719947825314   0.0007504398705114   0.2643510106463997 Br
   0.7361561257642412   -0.0008009327396941   0.5008492243361012 Br
   0.2638408527282395   0.0008101393041864   0.4991983058657641 Br
   0.4991496747031122   0.4991693200538678   0.2418998808009226 Br
   0.5014281945996585   0.5014015097279714   0.7449078993155938 I
   0.5014511851878274   0.7591818568982536   -0.0010030138014162 I
   0.4985759119779253   0.2407857293602568   0.0018512337152342 I
   0.7593739823506862   0.5014425245178912   -0.0009182398930368 I
   0.2405964544745723   0.4985780311517881   0.0019208654387610 I
