Random_composition
1.0
  10.6344755459999991  0.0033478350000000  0.0173368950000000
  0.0033545760000000  10.7398799080000007  0.0233906570000000
  0.0171689100000000  0.0231568970000000  10.7476571189999994
Cs Rb Pd Pt Cl Br I
6 2 3 1 8 11 5
Direct
   0.7567234119690834   0.2449875544638470   0.2552026283903371 Cs
   0.2401449610666841   0.7582369983956398   0.7449931535605240 Cs
   0.2433204551964730   0.7550312936879426   0.2552147756884526 Cs
   0.7598144799630797   0.2417480283018398   0.7449821335271578 Cs
   0.2402016521492033   0.2418085478034463   0.7449651119053835 Cs
   0.7567185699158889   0.7550220548939707   0.2552342670893276 Cs
   0.7574802253195071   0.7563007329918643   0.7459995406497298 Rb
   0.2448640964265837   0.2461000791131320   0.2541333747523672 Rb
   0.0000008950041580   0.0000008706522983   0.0000279097216218 Pd
   0.0000128898547001   0.4999965953881226   0.4994869549918745 Pd
   0.4999924179836779   0.0000226635603243   0.4993200931527648 Pd
   0.5000301223906320   0.5000219280298416   0.0043409636485121 Pt
   0.2170791933425838   0.0007424839350897   0.0008233565262924 Cl
   0.7829277443239280   -0.0007377117962864   -0.0007849413540952 Cl
   0.0007682489483258   0.2162843389441007   0.0008464773355909 Cl
   -0.0007659277327119   0.7837220965548405   -0.0008046866251312 Cl
   0.0008673255281289   0.0008639179229037   0.2162950241081819 Cl
   -0.0008942705746650   -0.0008894055648388   0.7835722906313864 Cl
   0.2173036739867803   0.4992054998024590   0.4994359072837654 Cl
   0.7827597551227783   0.5007475964350281   0.5009479276674556 Cl
   -0.0012276000514155   0.5012662246069860   0.7317498362079751 Br
   0.0012288295266443   0.4987196680099485   0.2684532343441938 Br
   -0.0014547320979381   0.7311660208862426   0.5013458009753085 Br
   0.0014414303283802   0.2688280152424407   0.4985372055371039 Br
   0.4986644273636108   0.2313131936062023   0.4985397357103150 Br
   0.5012751755989793   0.7687897051299669   0.5010475203099665 Br
   0.5012546638381759   -0.0011701074884670   0.7323388793445277 Br
   0.4987283939720281   0.0011708169288754   0.2679938688154753 Br
   0.7328294880819409   -0.0013708432036981   0.5013322454723724 Br
   0.2671579973293373   0.0013594004145553   0.4985902000083214 Br
   0.4986766903194224   0.4987122381432942   0.2453250283743884 Br
   0.5021046264426648   0.5020424888351848   0.7459115854174637 I
   0.5021728892246762   0.7610814754862902   -0.0010726351117127 I
   0.4978009651554183   0.2389121153375954   0.0032827029372592 I
   0.7620283487477457   0.5021537444986234   -0.0009524784196919 I
   0.2379668448725850   0.4978115091202887   0.0033467996920825 I
