Random_composition
1.0
  10.9222276489999999  0.0074675290000000  0.0181310430000000
  0.0075735640000000  10.8942556649999993  0.0238406640000000
  0.0179582660000000  0.0233507740000000  11.0560299069999992
Cs Rb Pd Pt Cl Br I
6 2 3 1 8 11 5
Direct
   0.7588981339015608   0.2439379121119370   0.2552774157851316 Cs
   0.2362534149025464   0.7614961804101158   0.7477993433580050 Cs
   0.2424183176535130   0.7566785789789451   0.2556591296403412 Cs
   0.7626316830915025   0.2377658661907319   0.7474223808676773 Cs
   0.2374414848174300   0.2388361947242837   0.7479123152085494 Cs
   0.7578122331148134   0.7559763691837174   0.2548597569749519 Cs
   0.7633921199597412   0.7624154035797495   0.7469138998939922 Rb
   0.2424466968787274   0.2438626113853205   0.2564320434895405 Rb
   -0.0002466162319228   -0.0002519969511610   0.0003066633513718 Pd
   0.0000402823132854   0.4999075866327003   0.4997111248168484 Pd
   0.4998665229776885   0.0001064334484497   0.4996716188001489 Pd
   0.5001482322585814   0.5001044447105356   -0.0000236098435786 Pt
   0.2154182608551811   -0.0000192173810951   -0.0003975477302790 Cl
   0.7841028080081189   -0.0005364677079054   0.0008182130560471 Cl
   0.0002948022233051   0.2160134228155718   -0.0003278978562032 Cl
   -0.0008430465744423   0.7834998806583459   0.0007829327514206 Cl
   0.0014389001254866   0.0011956529685240   0.2129910488563650 Cl
   -0.0020578497744746   -0.0018402269008137   0.7868377036214521 Cl
   0.2151954643921510   0.5013913014421598   0.5005399611598117 Cl
   0.7849087358032422   0.4982526944833612   0.4991882400199991 Cl
   -0.0029067480578420   0.5002187000003380   0.7272264297449321 Br
   0.0029613630137634   0.4996870373228188   0.2723485249195510 Br
   -0.0035908159164468   0.7306158669160027   0.5015151717644114 Br
   0.0036805781593889   0.2692333483887726   0.4978671920919394 Br
   0.4994218460064624   0.2307018808765360   0.4991389243181045 Br
   0.5000762049062362   0.7695629912749700   0.5014689948164364 Br
   0.5001062635660790   -0.0015065048701608   0.7270718816360687 Br
   0.4997810106463030   0.0016781860387880   0.2725940925709463 Br
   0.7298524810483957   -0.0022760335582539   0.5012894612309926 Br
   0.2699131779643511   0.0024326573964628   0.4977318479314463 Br
   0.4995659067119118   0.4995912162638765   0.2301867654254867 Br
   0.5013290671338771   0.5011583304377061   0.7575479176713374 I
   0.5012702033985420   0.7482770488973578   -0.0019155133888253 I
   0.4987089373375277   0.2519237296396482   0.0027561301911268 I
   0.7477407746620178   0.5013732181556192   -0.0017900087768727 I
   0.2525288735161260   0.4985355570293401   0.0025873636078206 I
