Random_composition
1.0
  10.9204058259999996  0.0028979570000000  0.0189415300000000
  0.0030237620000000  10.8779587309999997  0.0263452830000000
  0.0187616210000000  0.0258472060000000  11.0578346970000005
Cs Rb Pd Pt Cl Br I
6 2 3 1 8 11 5
Direct
   0.7589810130139660   0.2447893921771505   0.2557955305054114 Cs
   0.2359974414966824   0.7609469511805586   0.7473364099797166 Cs
   0.2432588031924547   0.7564784721106307   0.2562538457388195 Cs
   0.7620931858922726   0.2377159637098790   0.7469683098952434 Cs
   0.2376476246101890   0.2389363976667136   0.7482833637961993 Cs
   0.7569905436977945   0.7551938519718937   0.2549102715309629 Cs
   0.7640431264204416   0.7636196882044800   0.7483354837683095 Rb
   0.2431703246010919   0.2442619243506354   0.2570556451933111 Rb
   -0.0004347402962201   -0.0004579017058206   0.0004757077981837 Pd
   0.0000966335316239   0.4998149431298441   0.4996050813625829 Pd
   0.4997748299824096   0.0002045882337854   0.4997124899713741 Pd
   0.5002898362916827   0.5002220465207310   -0.0005647350039458 Pt
   0.2151205334391059   -0.0000841265660275   -0.0007074165886822 Cl
   0.7839820425398106   -0.0009941730098493   0.0016491811363407 Cl
   0.0003314477698699   0.2159859679029158   -0.0006734129945285 Cl
   -0.0013678721155452   0.7830800817256197   0.0015921239291780 Cl
   0.0020564369276216   0.0017123211441731   0.2130784191404441 Cl
   -0.0030099902777810   -0.0027254546099995   0.7871684697055252 Cl
   0.2153602868663628   0.5025275369262692   0.5014889142803305 Cl
   0.7848945304255303   0.4968594792537220   0.4978680857479756 Cl
   -0.0042594597704965   0.5002682878704283   0.7271406375107574 Br
   0.0044268112970855   0.4994826169560496   0.2722103577240447 Br
   -0.0047809886726197   0.7308116804806603   0.5015843762073199 Br
   0.0049257993916783   0.2688385568751831   0.4975778912171289 Br
   0.4997262630211179   0.2312103689111869   0.4992788614296734 Br
   0.4995489604862948   0.7692962996385138   0.5013667324180340 Br
   0.5000052872524889   -0.0019192410440752   0.7272906421708104 Br
   0.4997040884472153   0.0022798137243916   0.2724534106570753 Br
   0.7298086522366963   -0.0028186667023595   0.5016552261896554 Br
   0.2697653041643122   0.0030574581283469   0.4975132866013181 Br
   0.4996997856532991   0.4996407433659474   0.2294447162811253 Br
   0.5013941962259811   0.5012379295018259   0.7571986560767540 I
   0.5015776404048046   0.7489653076891856   -0.0029890436796164 I
   0.4985717374503718   0.2515335115116725   0.0028630891852419 I
   0.7478711402132611   0.5018668546840798   -0.0028719590067730 I
   0.2527382190772613   0.4981604688209297   0.0026522889620206 I
