Random_composition
1.0
  10.9219407020000006  0.0030984530000000  0.0186415270000000
  0.0032240280000000  10.8802714839999997  0.0255049030000000
  0.0184606480000000  0.0249981200000000  11.0581296259999995
Cs Rb Pd Pt Cl Br I
6 2 3 1 8 11 5
Direct
   0.7589550020471059   0.2445754212385246   0.2556765152033570 Cs
   0.2360511183571497   0.7611355973596158   0.7475230655361157 Cs
   0.2430541304445472   0.7565274829171504   0.2561196183789626 Cs
   0.7622437317528661   0.2376871672493502   0.7471488130617532 Cs
   0.2376058130378072   0.2388882390996899   0.7482520212098316 Cs
   0.7571840750870780   0.7553885654115861   0.2548684918564874 Cs
   0.7639494948612585   0.7633693148936942   0.7479582383523931 Rb
   0.2429366766330096   0.2441294515067784   0.2569218201894798 Rb
   -0.0003888989299651   -0.0004072298114250   0.0004790716157176 Pd
   0.0000846560920937   0.4998413320738408   0.4996514061654968 Pd
   0.4998007363844902   0.0001828071895837   0.4997335422443737 Pd
   0.5002650388265131   0.5002063119340538   -0.0004208141748823 Pt
   0.2151880638610462   -0.0000479486161587   -0.0006022909301117 Cl
   0.7840325271018741   -0.0009020623543910   0.0014159215002496 Cl
   0.0003446119064066   0.2160435947195398   -0.0005612698737640 Cl
   -0.0012644309191228   0.7831504835970127   0.0013618391458503 Cl
   0.0019365485847288   0.0016154887537359   0.2130977639611646 Cl
   -0.0028144794212898   -0.0025434825905584   0.7869592446275848 Cl
   0.2154231276996852   0.5022120825994639   0.5011865026853715 Cl
   0.7847936235323174   0.4972471347424279   0.4982187942149974 Cl
   -0.0039295114720177   0.5002708784252538   0.7272227911814716 Br
   0.0040618985266722   0.4995180438891419   0.2722399015539268 Br
   -0.0045281870742910   0.7308985432261136   0.5016158340947434 Br
   0.0046573750140466   0.2688165333834144   0.4975856881684547 Br
   0.4996198988033484   0.2311911668710165   0.4992091791817830 Br
   0.4997073024142908   0.7692627330129359   0.5014098142244853 Br
   0.5000485943341301   -0.0018407956799872   0.7272138735862808 Br
   0.4997026301273002   0.0021386961156834   0.2725045133859180 Br
   0.7298518516019072   -0.0027399052424478   0.5016177704209344 Br
   0.2697813595726876   0.0029481901808250   0.4975168365960735 Br
   0.4996209767607508   0.4995842501964838   0.2296043309404374 Br
   0.5013820977396272   0.5012207441433187   0.7572057996082228 I
   0.5015342467399592   0.7488237598020990   -0.0027914342301883 I
   0.4985474577451044   0.2516401909783468   0.0028674157851529 I
   0.7478828155927284   0.5017687041211126   -0.0026803122073252 I
   0.2526789515595984   0.4981980804716852   0.0026689128978523 I
