Random_composition
1.0
  10.9232702820000007  0.0020939570000000  0.0208327240000000
  0.0022207230000000  10.8858267309999999  0.0298652990000000
  0.0206723800000000  0.0294355620000000  11.0614342000000008
Cs Rb Pd Pt Cl Br I
6 2 3 1 8 11 5
Direct
   0.7593096729629624   0.2452001713472489   0.2559305134880697 Cs
   0.2357028641008371   0.7603720104911772   0.7466645627057679 Cs
   0.2436183468907001   0.7565417042418825   0.2564233869433257 Cs
   0.7617849995646032   0.2378153039215227   0.7463306628175158 Cs
   0.2375662810149314   0.2390270310507675   0.7482684508926061 Cs
   0.7566827327779070   0.7548003796223780   0.2551128404714224 Cs
   0.7640740096697313   0.7642979906188436   0.7495887168976736 Rb
   0.2440668172172235   0.2447076897222318   0.2572882596940459 Rb
   -0.0005862061192187   -0.0006319861415103   0.0007106751785739 Pd
   0.0001357378353119   0.4997079524139756   0.4995837921993532 Pd
   0.4996888743642916   0.0002738216943337   0.4998340940117623 Pd
   0.5003743244026810   0.5002838738594965   -0.0007246155905045 Pt
   0.2149360794234428   -0.0004056568467655   -0.0011603910239100 Cl
   0.7838359008227681   -0.0010586119262640   0.0024646151923564 Cl
   0.0000718138721444   0.2157211729064978   -0.0011367489224915 Cl
   -0.0014463570669416   0.7829778847937029   0.0024270146558237 Cl
   0.0022609471427959   0.0018397581286971   0.2132786680940157 Cl
   -0.0034504620215750   -0.0031242553090429   0.7873920354145326 Cl
   0.2153540987286190   0.5035367283459217   0.5026396407573789 Cl
   0.7849952724950853   0.4955646878954830   0.4965057987298757 Cl
   -0.0053550954374660   0.5001372759582461   0.7267904565158197 Br
   0.0056544823474165   0.4994584463276199   0.2721216500019720 Br
   -0.0055205548488641   0.7306087102878656   0.5011533821365353 Br
   0.0057082878957097   0.2688033039846386   0.4977603347103097 Br
   0.5000479325808713   0.2311700329964323   0.4995996520305200 Br
   0.4990649424032799   0.7694843575820386   0.5011485976548887 Br
   0.4997510250684654   -0.0020794475089137   0.7270134037544281 Br
   0.4998034539550834   0.0026794956300174   0.2726262846323623 Br
   0.7296579076620373   -0.0028833737338704   0.5014354604228400 Br
   0.2697191018925498   0.0032313401790643   0.4976772823412108 Br
   0.5000370510735572   0.4999081632034597   0.2292906067604324 Br
   0.5014072797854073   0.5012670734636382   0.7570287611981449 I
   0.5013537926799081   0.7487363126172133   -0.0031791355806035 I
   0.4989673686123511   0.2518298767663969   0.0026763415505316 I
   0.7479305198418542   0.5018499597425802   -0.0029841816707540 I
   0.2527982207363834   0.4983497876681974   0.0024192305030762 I
