Random_composition
1.0
  10.9114579870000004  0.0079042950000000  0.0154384540000000
  0.0079681700000000  10.9279054640000002  0.0202208530000000
  0.0152458530000000  0.0197882150000000  11.0400676729999994
Cs Rb Pd Pt Cl Br I
6 2 3 1 8 11 5
Direct
   0.7582813611981969   0.2439631494343596   0.2552067839216727 Cs
   0.2374575957161555   0.7605117499613315   0.7465330892569835 Cs
   0.2423085359555913   0.7563050649055301   0.2554283253326243 Cs
   0.7619666100377951   0.2391207756439989   0.7463007865103920 Cs
   0.2381176688351108   0.2397677369357871   0.7463374108939107 Cs
   0.7579476204026659   0.7560467376840896   0.2552874342860167 Cs
   0.7612734762849145   0.7599941472623417   0.7458214594698077 Rb
   0.2429074785451097   0.2444055631884639   0.2556621823979837 Rb
   -0.0000835890639903   -0.0000862863913389   0.0001814332420492 Pd
   0.0000224599090807   0.4999629665616091   0.4998828031732339 Pd
   0.4999442568044333   0.0000603580322244   0.4997270466548402 Pd
   0.5001046360531722   0.5000801074563335   0.0009544426313416 Pt
   0.2157780529507748   0.0003852093805457   0.0002473654395915 Cl
   0.7840790146407103   -0.0005652184185613   -0.0000474216840737 Cl
   0.0005616877011521   0.2154465727996252   0.0002921010113203 Cl
   -0.0007386235020923   0.7844034619402769   -0.0000525272044340 Cl
   0.0010363453183276   0.0008937869259006   0.2134901702695780 Cl
   -0.0013479231451668   -0.0012178386050516   0.7862800929032752 Cl
   0.2155896215540574   0.5000672687146043   0.4996952922947877 Cl
   0.7844688545450694   0.4997496917223538   0.5003958138890985 Cl
   -0.0019857051030876   0.5008648557800797   0.7278019464722983 Br
   0.0020138903212929   0.4991239814052759   0.2721012483770255 Br
   -0.0026102008155189   0.7298340061770631   0.5014908056091147 Br
   0.0025916135645482   0.2701175413010232   0.4977993020675417 Br
   0.4988393539320184   0.2298306358731232   0.4987597434338703 Br
   0.5008537740364715   0.7703302177995964   0.5015767132927816 Br
   0.5008019173344938   -0.0014014907106199   0.7275477804921026 Br
   0.4991935378784754   0.0014603904695694   0.2721426880865243 Br
   0.7301410749738145   -0.0019592085320269   0.5012475947952669 Br
   0.2697783448835355   0.0019726793022446   0.4977881760285233 Br
   0.4990770387392935   0.4991359383881897   0.2311880817451763 Br
   0.5015767909982264   0.5014108553868780   0.7582777318529327 I
   0.5014835368386965   0.7475772462841516   -0.0008766957237200 I
   0.4983503431862821   0.2526026692075120   0.0031737486351712 I
   0.7479637612819365   0.5014933880026093   -0.0007307951763033 I
   0.2522552283459489   0.4983091256058524   0.0030868772450402 I
