Random_composition
1.0
  10.9227678790000002  0.0031822780000000  0.0185639000000000
  0.0033077290000000  10.8812238810000004  0.0252681860000000
  0.0183832120000000  0.0247592020000000  11.0584216299999998
Cs Rb Pd Pt Cl Br I
6 2 3 1 8 11 5
Direct
   0.7589488137688128   0.2445115901840347   0.2556406945189112 Cs
   0.2360655636329958   0.7611891359194083   0.7475753873761172 Cs
   0.2429924386110100   0.7565423248238987   0.2560792810436860 Cs
   0.7622882764169991   0.2376795257977489   0.7471991485460454 Cs
   0.2375922316633658   0.2388746060301764   0.7482409072871259 Cs
   0.7572426855508548   0.7554472052058335   0.2548576945528691 Cs
   0.7639196831091283   0.7632939970129586   0.7478482819166593 Rb
   0.2428697881420379   0.2440917485000351   0.2568805683924484 Rb
   -0.0003760695333274   -0.0003934257646018   0.0004907501860740 Pd
   0.0000815743821845   0.4998489384030802   0.4996742206612586 Pd
   0.4998075973041416   0.0001770035446218   0.4997518935426879 Pd
   0.5002571068080599   0.5002026656677884   -0.0003694864453150 Pt
   0.2152147425836097   -0.0000395790742256   -0.0005737007577309 Cl
   0.7840410233865376   -0.0008729176980019   0.0013480402892461 Cl
   0.0003465302879013   0.2160641171036947   -0.0005304537526947 Cl
   -0.0012317668832778   0.7831685080291424   0.0012943636393996 Cl
   0.0018994455649040   0.0015850833006444   0.2131049769625045 Cl
   -0.0027545527167853   -0.0024881400151398   0.7868902359826080 Cl
   0.2154433130953276   0.5021197641042804   0.5010998008299279 Cl
   0.7847611757083404   0.4973590051911213   0.4983192535550232 Cl
   -0.0038327103937839   0.5002705873177308   0.7272421407757270 Br
   0.0039543986740315   0.4995299188283769   0.2722435874455743 Br
   -0.0044520871363614   0.7309236997037086   0.5016216344162371 Br
   0.0045770014788729   0.2688103385261639   0.4975911452355831 Br
   0.4995902736532766   0.2311826909357275   0.4991900538417419 Br
   0.4997531634447486   0.7692549088530545   0.5014201069245010 Br
   0.5000598870170064   -0.0018165025026824   0.7271817902268312 Br
   0.4997042294548342   0.0020964985773167   0.2725181465104639 Br
   0.7298651759347490   -0.0027140263471962   0.5016031781004731 Br
   0.2697845811296968   0.0029144965819658   0.4975192921788275 Br
   0.4996000852257939   0.4995691769189871   0.2296550404811813 Br
   0.5013777069415160   0.5012153800018487   0.7572018820680615 I
   0.5015178829080138   0.7487762123012691   -0.0027291728820906 I
   0.4985444071892339   0.2516750466776719   0.0028662046582112 I
   0.7478899708943871   0.5017372064078045   -0.0026198805448621 I
   0.2526550935981794   0.4982123243002242   0.0026713409398229 I
