Random_composition
1.0
  10.9248019329999995  0.0024687740000000  0.0201067650000000
  0.0025958940000000  10.8801922609999995  0.0285980010000000
  0.0199389940000000  0.0281298060000000  11.0626629239999996
Cs Rb Pd Pt Cl Br I
6 2 3 1 8 11 5
Direct
   0.7591130633214451   0.2451625447585941   0.2559668999029150 Cs
   0.2358526520301921   0.7605332401003564   0.7468896135183446 Cs
   0.2435982795884226   0.7564392659420849   0.2564526638156168 Cs
   0.7618213592416477   0.2377990360804562   0.7465392118175433 Cs
   0.2376610165235422   0.2390264982053468   0.7482814745984570 Cs
   0.7566869723246429   0.7548541030397252   0.2550369810467998 Cs
   0.7641309319889261   0.7640885115495425   0.7491563696588941 Rb
   0.2437248248347913   0.2445592199631215   0.2572703875150012 Rb
   -0.0005459351381400   -0.0005837093629402   0.0007898342352560 Pd
   0.0001303514103140   0.4997439329612080   0.4994562104548361 Pd
   0.4997147823710735   0.0002498763166301   0.4997409072590384 Pd
   0.5003417521254516   0.5002626073274744   -0.0006604887651812 Pt
   0.2150657527900527   -0.0002474752728682   -0.0010085455309853 Cl
   0.7838054821203077   -0.0010915217943034   0.0021659724129058 Cl
   0.0002122869481883   0.2159058551527717   -0.0009860866538452 Cl
   -0.0014805286500973   0.7829065884380074   0.0021134337548932 Cl
   0.0022320047601771   0.0018388629559242   0.2132011569007791 Cl
   -0.0033391024967358   -0.0030253900052918   0.7872456856442507 Cl
   0.2153741342825451   0.5032191121737095   0.5022288485504016 Cl
   0.7849462060342542   0.4959967785278632   0.4970469400093683 Cl
   -0.0049514230381845   0.5002055912157727   0.7269592079547710 Br
   0.0052034757277292   0.4994573003277542   0.2721561630545916 Br
   -0.0052691114242443   0.7307075912672547   0.5013873428545040 Br
   0.0054453261418394   0.2687955326393659   0.4976743425176155 Br
   0.4999670274333660   0.2311839134986318   0.4994797293059267 Br
   0.4992024996538435   0.7694181842094819   0.5012408738063261 Br
   0.4998622871641030   -0.0020366248663772   0.7271583419944753 Br
   0.4997544891027149   0.0025504293058630   0.2725599286053125 Br
   0.7297053378091870   -0.0028971139847603   0.5015917845497991 Br
   0.2697376337168236   0.0032073842866204   0.4975903868557718 Br
   0.4999322470013909   0.4998235213463304   0.2292860266697153 Br
   0.5013980845058315   0.5012556274768403   0.7570106451891703 I
   0.5015267576607488   0.7489024764793536   -0.0032380263843205 I
   0.4987670858237464   0.2516197064623731   0.0027683738543760 I
   0.7479090732709150   0.5019442847239276   -0.0030835826209709 I
   0.2527639600869019   0.4982232534564229   0.0025309950728725 I
