Random_composition
1.0
  10.9224473629999999  0.0029082990000000  0.0194318170000000
  0.0030337980000000  10.8779242150000002  0.0275148630000000
  0.0192581760000000  0.0270315630000000  11.0596348800000008
Cs Rb Pd Pt Cl Br I
6 2 3 1 8 11 5
Direct
   0.7590274894877296   0.2450480663084530   0.2559314374719586 Cs
   0.2359283397342564   0.7606946910576413   0.7470766587791631 Cs
   0.2435010322506019   0.7564274730336562   0.2564076811740134 Cs
   0.7619060047372349   0.2377658764085283   0.7467183841090139 Cs
   0.2376861135272404   0.2389997407036815   0.7482982369320315 Cs
   0.7567662224170111   0.7549599109187974   0.2549760520425777 Cs
   0.7641274194873419   0.7639146709500561   0.7488206164275252 Rb
   0.2434852709963469   0.2444380995493247   0.2572085777528600 Rb
   -0.0005035153940433   -0.0005335863061520   0.0005836056834732 Pd
   0.0001145960270524   0.4997785957436466   0.4996373292206508 Pd
   0.4997418128730201   0.0002321809175141   0.4998214480041556 Pd
   0.5003242123311301   0.5002500835194775   -0.0006507015038515 Pt
   0.2151090361034054   -0.0001482080897545   -0.0008658406541648 Cl
   0.7838486612444800   -0.0010877427137030   0.0019501842135632 Cl
   0.0002949024544172   0.2159448641429479   -0.0008406628196910 Cl
   -0.0014723600189883   0.7829640097596577   0.0018911531343410 Cl
   0.0021864209380527   0.0018141237783673   0.2130746289610982 Cl
   -0.0032322490448945   -0.0029301499818117   0.7873518000937166 Cl
   0.2153087594148707   0.5029412503302689   0.5018952126553988 Cl
   0.7849893793745659   0.4963512745884127   0.4973988067780474 Cl
   -0.0046709447883394   0.5002509503997465   0.7269893188895649 Br
   0.0048884688567865   0.4994527991225901   0.2721294749311778 Br
   -0.0050808075952053   0.7306944001022723   0.5015051430892915 Br
   0.0052453001664620   0.2688687556009447   0.4975960099065869 Br
   0.4998725390903180   0.2312010302689779   0.4993768025390510 Br
   0.4993388094194422   0.7693643382985289   0.5012957521133820 Br
   0.4999373826553132   -0.0020025716498345   0.7272925820814596 Br
   0.4997201620128174   0.0024502841954246   0.2723726544964030 Br
   0.7297684768421406   -0.0028896089154232   0.5016565953485678 Br
   0.2697251663143723   0.0031694134549305   0.4975265100208155 Br
   0.4998228145827301   0.4997349173484394   0.2292803898375571 Br
   0.5014039696551055   0.5012551489459415   0.7571239859111240 I
   0.5016008634386249   0.7490801993562192   -0.0031979225020022 I
   0.4986412379831643   0.2514343008548173   0.0028312249647555 I
   0.7478906465544177   0.5019622971268585   -0.0030673976478026 I
   0.2527564058576602   0.4981515205153628   0.0026051414217731 I
