Random_composition
1.0
  10.9226693249999993  0.0034639310000000  0.0185317510000000
  0.0035882560000000  10.8817693359999996  0.0251448420000000
  0.0183521100000000  0.0246368550000000  11.0578695660000008
Cs Rb Pd Pt Cl Br I
6 2 3 1 8 11 5
Direct
   0.7589455986345657   0.2444633351395762   0.2556105767332832 Cs
   0.2360786044123536   0.7612184646989911   0.7475991901263364 Cs
   0.2429448553877864   0.7565543849760703   0.2560451946968273 Cs
   0.7623195179362277   0.2376819494059867   0.7472231753259857 Cs
   0.2375785090172540   0.2388686267037868   0.7482183517329722 Cs
   0.7572894230717595   0.7554909212279508   0.2548564517160800 Cs
   0.7638817863777405   0.7632270970888853   0.7477717709385210 Rb
   0.2428317179767910   0.2440706932051759   0.2568453866360316 Rb
   -0.0003650185364781   -0.0003804467915399   0.0004545478382695 Pd
   0.0000765126371251   0.4998551585965831   0.4997065456524362 Pd
   0.4998134859855387   0.0001714573731772   0.4997764928115191 Pd
   0.5002505478058330   0.5001985669609736   -0.0003353206964760 Pt
   0.2152340499792155   -0.0000378464702003   -0.0005568624354511 Cl
   0.7840436081767196   -0.0008461903947090   0.0013059998870224 Cl
   0.0003427826673648   0.2160633394031359   -0.0005117831116152 Cl
   -0.0012005591429652   0.7831918684764995   0.0012542210406619 Cl
   0.0018634164194385   0.0015542773873277   0.2131058221935602 Cl
   -0.0027001005307917   -0.0024368357621503   0.7868876784543662 Cl
   0.2154229070789307   0.5020589346771429   0.5010489236348776 Cl
   0.7847732415060251   0.4974331582434106   0.4983879459450802 Cl
   -0.0037574344098040   0.5002657458797152   0.7272260249321812 Br
   0.0038727847201715   0.4995427699446877   0.2722502095477681 Br
   -0.0043843061729925   0.7309029231232722   0.5016131522663172 Br
   0.0045065134549244   0.2688399998309344   0.4976091022102897 Br
   0.4995747261851546   0.2311435881453384   0.4991829487243579 Br
   0.4997805283408039   0.7692807153158872   0.5014234176447758 Br
   0.5000638213259281   -0.0017916923082259   0.7271462143415087 Br
   0.4997094536497346   0.0020626047410912   0.2725287748218945 Br
   0.7298613894250748   -0.0026811346517136   0.5015777925458177 Br
   0.2697984183346428   0.0028770876858971   0.4975323488976616 Br
   0.4995960140414751   0.4995695407832613   0.2296934322417548 Br
   0.5013733109624853   0.5012105577581625   0.7572232394660565 I
   0.5014975886018224   0.7487246144740322   -0.0026668962222347 I
   0.4985561882955437   0.2517056339758423   0.0028569501813714 I
   0.7478791504635908   0.5017072319361774   -0.0025560854288499 I
   0.2526436722244303   0.4982369165742843   0.0026650686782738 I
