Random_composition
1.0
  10.9226773510000008  0.0028551740000000  0.0210113710000000
  0.0029782280000000  10.8890033140000000  0.0303211180000000
  0.0208536580000000  0.0299080380000000  11.0616844420000007
Cs Rb Pd Pt Cl Br I
6 2 3 1 8 11 5
Direct
   0.7595019658990962   0.2451105860425649   0.2558344355468840 Cs
   0.2355783922541431   0.7603348633026962   0.7465730933830457 Cs
   0.2435246359692745   0.7566843504330519   0.2563289264772335 Cs
   0.7618269261936949   0.2377945756295675   0.7462518767111047 Cs
   0.2374723288328010   0.2390000283575445   0.7482896186503625 Cs
   0.7567660595256391   0.7548449215794898   0.2551303628684896 Cs
   0.7639818345297904   0.7644026738475703   0.7498134840180415 Rb
   0.2442786185759732   0.2447762039687426   0.2572434151483639 Rb
   -0.0006065650650114   -0.0006578234551718   0.0008283268930936 Pd
   0.0001424845360799   0.4996739923421806   0.4994588628060966 Pd
   0.4996702552519866   0.0002907557406968   0.4997758212898867 Pd
   0.5003978193451848   0.5003076166333034   -0.0006693311989608 Pt
   0.2149397224694738   -0.0004855080767560   -0.0012368330678292 Cl
   0.7838031702082680   -0.0010327167023005   0.0025866344384342 Cl
   -0.0000033679850133   0.2155335956671356   -0.0012046220348332 Cl
   -0.0014159250172880   0.7831274606711300   0.0025587830253345 Cl
   0.0022722968183786   0.0018338308873115   0.2131507786620153 Cl
   -0.0035075953734676   -0.0031758552779750   0.7874777155815691 Cl
   0.2153101342848628   0.5036599752385137   0.5028786108042004 Cl
   0.7850499583242466   0.4953693613953409   0.4961852690691374 Cl
   -0.0056384432769515   0.5001144127493468   0.7268481111948429 Br
   0.0059506977672571   0.4994308295700122   0.2721359194749368 Br
   -0.0056747540038424   0.7303874594546413   0.5010270451193426 Br
   0.0058646822417550   0.2689736625109828   0.4977977108005567 Br
   0.5000378512451474   0.2310944840577034   0.4996550484741428 Br
   0.4990441330174401   0.7695964238656307   0.5011071689542045 Br
   0.4996981619867832   -0.0021182348577790   0.7271871590584965 Br
   0.4998132867077138   0.0027581177053113   0.2724950819375267 Br
   0.7297115452793304   -0.0028678059746251   0.5013399852581429 Br
   0.2696400256802058   0.0032339214011513   0.4977240551508743 Br
   0.5000284879073301   0.4998974491876427   0.2292811985085637 Br
   0.5014511535903355   0.5012998323814355   0.7570785350380470 I
   0.5012318847441931   0.7487573130425504   -0.0030750043637446 I
   0.4990685743369816   0.2518656937761991   0.0026313384513581 I
   0.7479928888131193   0.5017749892006325   -0.0028477339879278 I
   0.2527966648893786   0.4984099536739350   0.0023600427769936 I
