Random_composition
1.0
  10.9045333939999995  0.0064027370000000  0.0148691490000000
  0.0064593770000000  10.9280368509999999  0.0193428110000000
  0.0146738980000000  0.0189203410000000  11.0288602660000006
Cs Rb Pd Pt Cl Br I
6 2 3 1 8 11 5
Direct
   0.7581148108814861   0.2440526952520559   0.2552355134498895 Cs
   0.2377910199910799   0.7602032758309025   0.7461849713498683 Cs
   0.2423632007334378   0.7561729273632209   0.2554180293790725 Cs
   0.7617223128749239   0.2394893477857145   0.7459947122193873 Cs
   0.2383516180009190   0.2400348617650019   0.7459739961232563 Cs
   0.7578948068972742   0.7559871411873067   0.2553897469789107 Cs
   0.7607416841280895   0.7594256379570493   0.7456426859733168 Rb
   0.2430934771556125   0.2445909964540506   0.2554982347666034 Rb
   -0.0000551810484567   -0.0000569492378398   0.0001425280596239 Pd
   0.0000223912125613   0.4999727370282371   0.4999572626650081 Pd
   0.4999595807156353   0.0000579181620621   0.4997773816386748 Pd
   0.5001108363472287   0.5000906764963421   0.0009820251375291 Pt
   0.2158442438056432   0.0004840878354343   0.0004162910806575 Cl
   0.7840763929524548   -0.0006081607500550   -0.0002236663731566 Cl
   0.0006321324070858   0.2152305513418465   0.0004522168866710 Cl
   -0.0007543019161042   0.7846833922703966   -0.0002218512761003 Cl
   0.0009938800202683   0.0008704457956090   0.2130708276562165 Cl
   -0.0012560271431295   -0.0011416820836970   0.7866869785396469 Cl
   0.2155857384098238   0.4997813176385805   0.4995155541999587 Cl
   0.7844731798727157   0.5000647031393700   0.5006104675550318 Cl
   -0.0018487826050527   0.5010393421980004   0.7280757745457069 Br
   0.0018751021804811   0.4989554376562541   0.2719075993140596 Br
   -0.0024644651371270   0.7299378118586829   0.5014958447169425 Br
   0.0024193549318103   0.2700326778482423   0.4977423507778798 Br
   0.4986923273053956   0.2300095069598517   0.4986504232003850 Br
   0.5010342803740928   0.7701467205677086   0.5015906549498029 Br
   0.5009825445841983   -0.0014116018549501   0.7277024032109597 Br
   0.4990226785248341   0.0014502810311116   0.2719911062954031 Br
   0.7305738317335970   -0.0019392435377936   0.5012833933806671 Br
   0.2693763415179350   0.0019186600079163   0.4977746891659628 Br
   0.4989373836957255   0.4989937339024443   0.2322115996074674 Br
   0.5016529310044561   0.5014963591864584   0.7577746291966371 I
   0.5015779493574902   0.7472716334289049   -0.0007092637903213 I
   0.4982164089294759   0.2529463757675273   0.0033157779824732 I
   0.7483042186588234   0.5015776830869180   -0.0005602182910398 I
   0.2519442338520438   0.4981915289509439   0.0032494181807112 I
