Random_composition
1.0
  10.9199388830000004  0.0028955920000000  0.0188293900000000
  0.0030214670000000  10.8779666249999991  0.0260777750000000
  0.0186480480000000  0.0255763180000000  11.0574229570000000
Cs Rb Pd Pt Cl Br I
6 2 3 1 8 11 5
Direct
   0.7589704609405931   0.2447296362421525   0.2557645715281573 Cs
   0.2360135167730479   0.7610044464792342   0.7473957303483950 Cs
   0.2432034036766148   0.7564899695370830   0.2562191085630822 Cs
   0.7621353285680427   0.2377049944919137   0.7470258369807313 Cs
   0.2376390727183439   0.2389218265590161   0.7482796745463188 Cs
   0.7570422164875863   0.7552476398330550   0.2548957555299242 Cs
   0.7640235094811547   0.7635527083574641   0.7482242634486596 Rb
   0.2430983535478075   0.2442214194161738   0.2570204527871326 Rb
   -0.0004191492219841   -0.0004403697062281   0.0004512241419802 Pd
   0.0000918756767459   0.4998233631011630   0.4995977824414478 Pd
   0.4997822100914168   0.0001988100687000   0.4996882404529050 Pd
   0.5002819932241724   0.5002162199228634   -0.0005457447741993 Pt
   0.2151232481006591   -0.0000694752152697   -0.0006709364203913 Cl
   0.7840120318461158   -0.0009726629001431   0.0015801960945047 Cl
   0.0003396749904946   0.2159958157651651   -0.0006356893631246 Cl
   -0.0013438310779476   0.7831063655222213   0.0015241916659826 Cl
   0.0020266948211269   0.0016891344285002   0.2130792860929387 Cl
   -0.0029597484488850   -0.0026781857995267   0.7871260424088826 Cl
   0.2153722554573804   0.5024332861993402   0.5013955196592194 Cl
   0.7848727207824890   0.4969753213677536   0.4979751010919791 Cl
   -0.0041650371914338   0.5002721360270771   0.7271750815878245 Br
   0.0043218433343140   0.4994899371620048   0.2722291665821339 Br
   -0.0047117580301623   0.7308382875643618   0.5016024171883405 Br
   0.0048524964190785   0.2688314790593024   0.4975732704649426 Br
   0.4996924706553498   0.2312117728540111   0.4992566196000789 Br
   0.4995967356043473   0.7692797846188886   0.5013837143289842 Br
   0.5000214065813936   -0.0019001033966708   0.7272901184724019 Br
   0.4996998801877184   0.0022406974782545   0.2724723957277048 Br
   0.7298175996721138   -0.0028032574343792   0.5016549610225379 Br
   0.2697737851417633   0.0030312985804957   0.4975102513540805 Br
   0.4996713881223787   0.4996194630257302   0.2294822707322072 Br
   0.5013924523157939   0.5012344275170295   0.7572160384846937 I
   0.5015725833374103   0.7489398674461990   -0.0029414621529123 I
   0.4985564912770067   0.2515564792164807   0.0028697873136729 I
   0.7478664956378588   0.5018453354637928   -0.0028278632172181 I
   0.2527344868573037   0.4981629610802511   0.0026633856986981 I
