Random_composition
1.0
  10.9042831130000000  0.0058493860000000  0.0147465050000000
  0.0059005500000000  10.9351616990000000  0.0191467730000000
  0.0145463470000000  0.0187311380000000  11.0305644950000001
Cs Rb Pd Pt Cl Br I
6 2 3 1 8 11 5
Direct
   0.7580550486370611   0.2440919411407010   0.2552433074230303 Cs
   0.2379076284691383   0.7600988011878035   0.7460885849036800 Cs
   0.2423949451773240   0.7561230604721382   0.2554146894664471 Cs
   0.7616324529852742   0.2396108299643900   0.7459102218008671 Cs
   0.2384387227289753   0.2401257726177092   0.7458771699537868 Cs
   0.7578603803830605   0.7559552447916957   0.2554112353831256 Cs
   0.7605694036157952   0.7592484891654625   0.7456107169077468 Rb
   0.2431668928852750   0.2446587434017908   0.2554411167309759 Rb
   -0.0000469768564693   -0.0000505713044698   0.0001751189635500 Pd
   0.0000255452798188   0.4999749266464637   0.4998725785402528 Pd
   0.4999633308617059   0.0000527322983699   0.4996431761118391 Pd
   0.5001157229327177   0.5000972586848220   0.0010806148956961 Pt
   0.2159619548009321   0.0005101100894599   0.0004601350179251 Cl
   0.7839733789509410   -0.0006219023183156   -0.0002755035729520 Cl
   0.0006494869369502   0.2153426746273560   0.0004929308043844 Cl
   -0.0007598438451581   0.7845873485937404   -0.0002711657071123 Cl
   0.0009855240312968   0.0008673308734019   0.2130053145913450 Cl
   -0.0012341234463698   -0.0011247111170786   0.7867176460034850 Cl
   0.2157157699381545   0.4997065879432231   0.4994813438796791 Cl
   0.7843400486418907   0.5001466034797925   0.5006695291588024 Cl
   -0.0018132441732408   0.5010823905556580   0.7283936041414714 Br
   0.0018381928687143   0.4989135516405441   0.2716805934925803 Br
   -0.0024241500628924   0.7302059834802485   0.5015005951907164 Br
   0.0023731810758783   0.2697694708846357   0.4977451327663934 Br
   0.4986570559781461   0.2303251959915986   0.4986296548540239 Br
   0.5010802766161804   0.7698343929531487   0.5015936378717498 Br
   0.5010286591561721   -0.0014126263153606   0.7280170139296216 Br
   0.4989771290029556   0.0014458229987915   0.2717924499499983 Br
   0.7308943790598582   -0.0019309544706381   0.5013051540959821 Br
   0.2690628717948978   0.0019032142280983   0.4977910083472084 Br
   0.4988976119264396   0.4989521831920574   0.2327115426273391 Br
   0.5016784320424222   0.5015270114927780   0.7573764131870091 I
   0.5016120978984600   0.7473239917153176   -0.0006840872142099 I
   0.4981738836044787   0.2528991676549209   0.0033471970900778 I
   0.7484983580088774   0.5016104852725879   -0.0005350548358136 I
   0.2517527075678496   0.4981522872237710   0.0032880927075512 I
