Random_composition
1.0
  10.9196363269999992  0.0050659310000000  0.0214792010000000
  0.0051800900000000  10.8943993530000007  0.0309435690000000
  0.0213300660000000  0.0305629350000000  11.0603873159999999
Cs Rb Pd Pt Cl Br I
6 2 3 1 8 11 5
Direct
   0.7597787160456601   0.2449429528436320   0.2556909690666164 Cs
   0.2353979019292912   0.7602992261110089   0.7464627805250786 Cs
   0.2433583570882949   0.7569070305420295   0.2561828416178503 Cs
   0.7618955613910173   0.2377528946372512   0.7461753312252377 Cs
   0.2373604475080176   0.2389664334856986   0.7483505754759301 Cs
   0.7568876361388828   0.7549198616673204   0.2551197044806984 Cs
   0.7638249236747160   0.7645346564764540   0.7500800815572463 Rb
   0.2445746367495721   0.2448607731617042   0.2571727178010546 Rb
   -0.0006211668275315   -0.0006802034916248   0.0007707135245154 Pd
   0.0001455026319279   0.4996360840502388   0.4994360679473718 Pd
   0.4996511315886866   0.0003116207292032   0.4997517801443685 Pd
   0.5004206012092257   0.5003298453193094   -0.0005967807076487 Pt
   0.2149943927416715   -0.0005534436625773   -0.0012993018999092 Cl
   0.7837053692566037   -0.0010228046443438   0.0027040901209471 Cl
   -0.0000631178904315   0.2154482012401500   -0.0012572236542774 Cl
   -0.0013978616957934   0.7831588223087957   0.0026867319423141 Cl
   0.0023179362254966   0.0018532134114939   0.2132848335367316 Cl
   -0.0036007739347111   -0.0032592950282115   0.7874342866247321 Cl
   0.2153860314597108   0.5037863528783423   0.5031961877424488 Cl
   0.7849886679365297   0.4951499996760532   0.4957464151826221 Cl
   -0.0060528291514971   0.5001226274952791   0.7268619263695958 Br
   0.0063747344039288   0.4993567736937720   0.2720809958131132 Br
   -0.0058891430971433   0.7302119075130833   0.5009237898503580 Br
   0.0060879361091188   0.2690689750581720   0.4978020320894489 Br
   0.4999795831100206   0.2309200180382553   0.4996981742702324 Br
   0.4990674171511876   0.7698192188920503   0.5010565469529482 Br
   0.4996714433627416   -0.0021860933513146   0.7271838564395993 Br
   0.4997897779695216   0.0028693263873264   0.2725036693192597 Br
   0.7296921337938136   -0.0028543799499904   0.5012668148314110 Br
   0.2696231005430309   0.0032495152264493   0.4977464172223540 Br
   0.4999561210382860   0.4998309513661508   0.2293386945666618 Br
   0.5015581862657094   0.5013850350424918   0.7571373451237464 I
   0.5011242355954665   0.7486351924880974   -0.0029256835219594 I
   0.4991630632285796   0.2520480496362846   0.0025902447355038 I
   0.7480420894619870   0.5017313369333549   -0.0026529545305729 I
   0.2528068607516955   0.4984477702719212   0.0022979446311670 I
