Random_composition
1.0
  10.9223007990000003  0.0045171180000000  0.0184115340000000
  0.0046372360000000  10.8838089629999999  0.0246836190000000
  0.0182358100000000  0.0241793600000000  11.0558052220000000
Cs Rb Pd Pt Cl Br I
6 2 3 1 8 11 5
Direct
   0.7589323986489810   0.2442852495810821   0.2554998925532439 Cs
   0.2361274290028784   0.7613304090203628   0.7476895600163105 Cs
   0.2427679532184394   0.7565986773319319   0.2559175581763919 Cs
   0.7624345906648673   0.2376931182039801   0.7473110386208401 Cs
   0.2375286675330357   0.2388463105647969   0.7481355699965861 Cs
   0.7574648057560279   0.7556551535338841   0.2548499680026112 Cs
   0.7637430146674721   0.7629770471825731   0.7474828941753753 Rb
   0.2426885342775064   0.2439905531097603   0.2567139258477051 Rb
   -0.0003208345354393   -0.0003331771321354   0.0003178539240501 Pd
   0.0000601695841741   0.4998759375003250   0.4998279215340113 Pd
   0.4998327676605931   0.0001502921493671   0.4998662233351119 Pd
   0.5002255871002321   0.5001810912298740   -0.0002076917823153 Pt
   0.2153052921943865   -0.0000331327991240   -0.0004941551303161 Cl
   0.7840520652320651   -0.0007441730223199   0.0011489681096484 Cl
   0.0003264975517133   0.2160612320751844   -0.0004404187986506 Cl
   -0.0010842357430418   0.7832789307404464   0.0011022086136136 Cl
   0.0017283067440325   0.0014406105202930   0.2131099971851882 Cl
   -0.0024947974746079   -0.0022459893014308   0.7868772285243794 Cl
   0.2153474233905834   0.5018322945433157   0.5008579633270993 Cl
   0.7848207966447375   0.4977106809500698   0.4986443622783522 Cl
   -0.0034763936658266   0.5002488866082788   0.7271651310227796 Br
   0.0035714222485503   0.4995916859220137   0.2722734756412820 Br
   -0.0041315232739012   0.7308260181181295   0.5015805294452856 Br
   0.0042433608409562   0.2689543105601564   0.4976763787895293 Br
   0.4995189571039861   0.2309958168474680   0.4991559787994950 Br
   0.4998826025899505   0.7693765691223352   0.5014347924052693 Br
   0.5000778053999391   -0.0017004727846366   0.7270130590136737 Br
   0.4997326695318544   0.0019361002126268   0.2725673349425085 Br
   0.7298468574655255   -0.0025572238755857   0.5014827423222148 Br
   0.2698491418324006   0.0027389177504454   0.4975814919388471 Br
   0.4995789992831840   0.4995692255149740   0.2298376967410610 Br
   0.5013564362510300   0.5011907321013204   0.7573042297443546 I
   0.5014230358422658   0.7485333348409486   -0.0024320687981461 I
   0.4985992267831685   0.2518198792075857   0.0028251399876844 I
   0.7478402575524676   0.5015953484392919   -0.0023173413683666 I
   0.2526007127239728   0.4983296870542324   0.0026410245722781 I
