Random_composition
1.0
  10.9100138659999999  0.0076179440000000  0.0152333270000000
  0.0076794800000000  10.9291086390000007  0.0199389540000000
  0.0150379690000000  0.0195079560000000  11.0386590380000005
Cs Rb Pd Pt Cl Br I
6 2 3 1 8 11 5
Direct
   0.7582298745855818   0.2439846888935031   0.2552125966743459 Cs
   0.2375547569883445   0.7604205819376118   0.7464221180614822 Cs
   0.2423178611696692   0.7562676465604574   0.2554222842883686 Cs
   0.7618992574586178   0.2392325957112980   0.7462014782224209 Cs
   0.2381817794282236   0.2398474086670709   0.7462164891825963 Cs
   0.7579398713355925   0.7560356024205737   0.2553226334188166 Cs
   0.7611099735756118   0.7598161958361280   0.7457550590496216 Rb
   0.2429583364902412   0.2444593435063898   0.2556102750247682 Rb
   -0.0000725764068032   -0.0000752618003337   0.0001587698483737 Pd
   0.0000213299527210   0.4999655102175181   0.4999222158023903 Pd
   0.4999493037032952   0.0000614603622443   0.4997810752489273 Pd
   0.5001004267087802   0.5000762899215621   0.0011360807941162 Pt
   0.2158266967040231   0.0004190616416635   0.0003011131779267 Cl
   0.7840508853877111   -0.0005774289931133   -0.0001061895459932 Cl
   0.0005857489163209   0.2154200241849843   0.0003429607825807 Cl
   -0.0007417546156391   0.7844507760462494   -0.0001077874173068 Cl
   0.0010185068040829   0.0008817174243380   0.2135464911195164 Cl
   -0.0013120248154877   -0.0011874507711283   0.7862317001687021 Cl
   0.2155906526341755   0.4999722307551275   0.4996328716009732 Cl
   0.7844678650736592   0.4998551076836538   0.5004723252592206 Cl
   -0.0019360180026228   0.5009224775351268   0.7278349294149268 Br
   0.0019638696448604   0.4990697281983826   0.2720818846781174 Br
   -0.0025568980298664   0.7297837950598659   0.5014927814590001 Br
   0.0025297508790100   0.2701739155483320   0.4977791649590684 Br
   0.4987899908221194   0.2297672435592655   0.4987236612267800 Br
   0.5009132986969173   0.7703884642793085   0.5015825441034792 Br
   0.5008609716824203   -0.0014034291215540   0.7275338586235189 Br
   0.4991383766985348   0.0014556525741821   0.2721252126149587 Br
   0.7301619617041154   -0.0019499102659277   0.5012543701366109 Br
   0.2697677058871908   0.0019520583756828   0.4977798117873185 Br
   0.4990341265003342   0.4990925386666457   0.2312805077145679 Br
   0.5016003965788285   0.5014359243507087   0.7582108316321753 I
   0.5015100836776144   0.7474960504370929   -0.0008211102845104 I
   0.4983111111254145   0.2526977590914369   0.0032105833489434 I
   0.7480117683874218   0.5015152676507262   -0.0006743933021260 I
   0.2522184168101010   0.4982764588668481   0.0031301594577507 I
