Random_composition
1.0
  10.9218827950000001  0.0034688490000000  0.0211365460000000
  0.0035893300000000  10.8906469309999991  0.0305209790000000
  0.0209806220000000  0.0301168390000000  11.0616405699999998
Cs Rb Pd Pt Cl Br I
6 2 3 1 8 11 5
Direct
   0.7595772456452287   0.2450663803511264   0.2557943803048885 Cs
   0.2355288058131181   0.7603257671910856   0.7465425942499241 Cs
   0.2434806122808528   0.7567444676752269   0.2562881211780447 Cs
   0.7618466815426539   0.2377832298613335   0.7462292562635198 Cs
   0.2374391246891496   0.2389894562838056   0.7483046581075404 Cs
   0.7567997119662900   0.7548661823103680   0.2551298422072245 Cs
   0.7639409059574945   0.7644399615421821   0.7498888993359289 Rb
   0.2443593907115102   0.2447995617936534   0.2572234693585765 Rb
   -0.0006092440813223   -0.0006621762298484   0.0007849728552838 Pd
   0.0001435784264512   0.4996643656521551   0.4994319499604630 Pd
   0.4996651168288748   0.0002961996976822   0.4997513461033383 Pd
   0.5004043576486851   0.5003140436507296   -0.0006451930975833 Pt
   0.2149526917814974   -0.0005075831140832   -0.0012527857361124 Cl
   0.7837768252691293   -0.0010291266915360   0.0026248434713971 Cl
   -0.0000227020992827   0.2155029711536498   -0.0012183438548530 Cl
   -0.0014096030800503   0.7831423257217187   0.0026006561577312 Cl
   0.0022826244057530   0.0018374930402657   0.2131895044134265 Cl
   -0.0035323966001253   -0.0031976308063408   0.7874837554485753 Cl
   0.2153227199735878   0.5036978380985629   0.5029665749016000 Cl
   0.7850417897201547   0.4953063774863068   0.4960656294904212 Cl
   -0.0057503923018058   0.5001134611079553   0.7268630308593830 Br
   0.0060656220324365   0.4994132432418704   0.2721286407330433 Br
   -0.0057327630644395   0.7303286541650844   0.5009944763820281 Br
   0.0059257386609397   0.2690103921269772   0.4978026771867277 Br
   0.5000243471557371   0.2310456878573875   0.4996699573468502 Br
   0.4990480376448822   0.7696592833468738   0.5010939433708181 Br
   0.4996876906446108   -0.0021361951755141   0.7272080010197934 Br
   0.4998087853123934   0.0027886029215617   0.2724903813907626 Br
   0.7297068184183838   -0.0028638623566230   0.5013165896194756 Br
   0.2696344279910063   0.0032362183098034   0.4977337721395979 Br
   0.5000122442914235   0.4998821559437995   0.2292891872018163 Br
   0.5014772967881475   0.5013200004009071   0.7570956289754013 I
   0.5011980365449736   0.7487335562826593   -0.0030344211864444 I
   0.4990971781748743   0.2519088049377836   0.0026182649857710 I
   0.7480054301427181   0.5017589366622799   -0.0027938374019500 I
   0.2528036544268525   0.4984224165919529   0.0023409062747468 I
