Random_composition
1.0
  10.5000000000000000  0.0000000000000000  0.0000000000000000
  0.0000000000000000  10.5000000000000000  0.0000000000000000
  0.0000000000000000  0.0000000000000000  10.5000000000000000
Cs Rb Pd Pt Cl Br I
6 2 3 1 8 11 5
Direct
   0.7500000000000000   0.2500000000000000   0.2500000000000000 Cs
   0.2500000000000000   0.7500000000000000   0.7500000000000000 Cs
   0.2500000000000000   0.7500000000000000   0.2500000000000000 Cs
   0.7500000000000000   0.2500000000000000   0.7500000000000000 Cs
   0.2500000000000000   0.2500000000000000   0.7500000000000000 Cs
   0.7500000000000000   0.7500000000000000   0.2500000000000000 Cs
   0.7500000000000000   0.7500000000000000   0.7500000000000000 Rb
   0.2500000000000000   0.2500000000000000   0.2500000000000000 Rb
   0.0000000000000000   0.0000000000000000   0.0000000000000000 Pd
   0.0000000000000000   0.5000000000000000   0.5000000000000000 Pd
   0.5000000000000000   0.0000000000000000   0.5000000000000000 Pd
   0.5000000000000000   0.5000000000000000   0.0000000000000000 Pt
   0.2500000000000000   0.0000000000000000   0.0000000000000000 Cl
   0.7500000000000000   0.0000000000000000   0.0000000000000000 Cl
   0.0000000000000000   0.2500000000000000   0.0000000000000000 Cl
   0.0000000000000000   0.7500000000000000   0.0000000000000000 Cl
   0.0000000000000000   0.0000000000000000   0.2500000000000000 Cl
   0.0000000000000000   0.0000000000000000   0.7500000000000000 Cl
   0.2500000000000000   0.5000000000000000   0.5000000000000000 Cl
   0.7500000000000000   0.5000000000000000   0.5000000000000000 Cl
   0.0000000000000000   0.5000000000000000   0.7500000000000000 Br
   0.0000000000000000   0.5000000000000000   0.2500000000000000 Br
   0.0000000000000000   0.7500000000000000   0.5000000000000000 Br
   0.0000000000000000   0.2500000000000000   0.5000000000000000 Br
   0.5000000000000000   0.2500000000000000   0.5000000000000000 Br
   0.5000000000000000   0.7500000000000000   0.5000000000000000 Br
   0.5000000000000000   0.0000000000000000   0.7500000000000000 Br
   0.5000000000000000   0.0000000000000000   0.2500000000000000 Br
   0.7500000000000000   0.0000000000000000   0.5000000000000000 Br
   0.2500000000000000   0.0000000000000000   0.5000000000000000 Br
   0.5000000000000000   0.5000000000000000   0.2500000000000000 Br
   0.5000000000000000   0.5000000000000000   0.7500000000000000 I
   0.5000000000000000   0.7500000000000000   0.0000000000000000 I
   0.5000000000000000   0.2500000000000000   0.0000000000000000 I
   0.7500000000000000   0.5000000000000000   0.0000000000000000 I
   0.2500000000000000   0.5000000000000000   0.0000000000000000 I
