Random_composition
1.0
  10.7326874350000008  0.0034535540000000  0.0165641560000000
  0.0034729740000000  10.8017592600000008  0.0222681900000000
  0.0164206410000000  0.0219985200000000  10.8252273799999994
Cs Rb Pd Pt Cl Br I
6 2 3 1 8 11 5
Direct
   0.7568494880460042   0.2449186538300554   0.2551918250694014 Cs
   0.2399577040743120   0.7583810984112919   0.7451065225351857 Cs
   0.2432332697620196   0.7551191783050689   0.2552173558907851 Cs
   0.7599612253316070   0.2415786807036976   0.7450811036680319 Cs
   0.2400569625573071   0.2416820034281445   0.7450561133849731 Cs
   0.7568324634134506   0.7550984077489601   0.2552453576451070 Cs
   0.7577490219078536   0.7565446396509777   0.7459595409637522 Rb
   0.2447039308205713   0.2459767658433663   0.2542486297926325 Rb
   -0.0000029288224945   -0.0000020293565655   0.0000877666279163 Pd
   0.0000256314471861   0.4999975520582602   0.4998846994147796 Pd
   0.4999934795438208   0.0000360670021101   0.4997453667212483 Pd
   0.5000455177394043   0.5000374871686035   0.0031142291133723 Pt
   0.2190117446537423   0.0007189889104370   0.0007857797730672 Cl
   0.7809949423721463   -0.0007240497541098   -0.0007362800339783 Cl
   0.0007557105108505   0.2176450603415079   0.0008111534685345 Cl
   -0.0007635311389643   0.7823604483335521   -0.0007537120077639 Cl
   0.0008677878852907   0.0008535504432576   0.2176126686405591 Cl
   -0.0009160042309735   -0.0009020943213313   0.7822057647018889 Cl
   0.2190761680411197   0.4992323614663733   0.4993801975083689 Cl
   0.7809801656734147   0.5007104621124036   0.5008960658891557 Cl
   -0.0012790472265771   0.5012546733780400   0.7324177935219152 Br
   0.0012824735967543   0.4987316868121181   0.2675613918556161 Br
   -0.0015602004096817   0.7322165455271230   0.5013308742385082 Br
   0.0015369615027388   0.2677777053125953   0.4984146223735245 Br
   0.4986456346312959   0.2322326882889910   0.4985021343997135 Br
   0.5012719438851498   0.7678726719976012   0.5010830284072253 Br
   0.5012391090095266   -0.0011997558225963   0.7327046199740588 Br
   0.4987452276149209   0.0012014168594818   0.2672971062217665 Br
   0.7340401331020664   -0.0014370732283379   0.5013006244811764 Br
   0.2659473505553499   0.0014169736160666   0.4984757422397817 Br
   0.4986715885215798   0.4987076679229280   0.2430909316300381 Br
   0.5020764522818651   0.5020045250256051   0.7488697013564575 I
   0.5021411195360905   0.7581226264098071   -0.0010124094526136 I
   0.4978059124756202   0.2418974117206241   0.0033271954868932 I
   0.7593243223947657   0.5021216346723180   -0.0008811737767613 I
   0.2406988568886254   0.4978165364137082   0.0033798415574226 I
