Random_composition
1.0
  10.8084103450000004  0.0042876810000000  0.0144699140000000
  0.0043094280000000  10.8815116639999996  0.0190607720000000
  0.0142383530000000  0.0186830040000000  10.9548288090000003
Cs Rb Pd Pt Cl Br I
6 2 3 1 8 11 5
Direct
   0.7575639958145043   0.2444360102240069   0.2552325576073362 Cs
   0.2387280025434402   0.7594059739763686   0.7456748895516586 Cs
   0.2427348323433253   0.7557082985921038   0.2553424898776267 Cs
   0.7609618965949771   0.2404029875347621   0.7455613248429243 Cs
   0.2390858163485172   0.2407557465144636   0.7455124676797508 Cs
   0.7574571387920936   0.7556092632814005   0.2553793594799111 Cs
   0.7594359419555611   0.7581521909424811   0.7456976465453536 Rb
   0.2437881888905457   0.2451976273827570   0.2549842447110808 Rb
   -0.0000232216674473   -0.0000240163664507   0.0000767509744493 Pd
   0.0000185574706404   0.4999842263639946   0.4996910259004190 Pd
   0.4999752766990659   0.0000435936631519   0.4994860864753806 Pd
   0.5000679577756190   0.5000542673794066   0.0031860506345851 Pt
   0.2177543867690284   0.0005987205108359   0.0006077411880422 Cl
   0.7822204410310882   -0.0006630684026292   -0.0004670108501299 Cl
   0.0006943958006545   0.2171412738675573   0.0006272185498562 Cl
   -0.0007593110754180   0.7828298294433768   -0.0004637547346869 Cl
   0.0009238512835934   0.0008414622121952   0.2156857614325139 Cl
   -0.0010926669244263   -0.0010140824771794   0.7841049175441582 Cl
   0.2174775667445209   0.4994661750218711   0.4994119947300104 Cl
   0.7825880464632174   0.5004238407681100   0.5008108888959274 Cl
   -0.0015936277123244   0.5011687891188497   0.7307608850132086 Br
   0.0016102133421117   0.4988230629104516   0.2694490985797878 Br
   -0.0021024076892338   0.7318634334490050   0.5014464977403690 Br
   0.0020515493849578   0.2681242601199398   0.4979894943118703 Br
   0.4986128575812623   0.2318388991191488   0.4985505644732401 Br
   0.5011939373119463   0.7683080621471491   0.5014129675416479 Br
   0.5011362201360019   -0.0013375894493910   0.7304116054197184 Br
   0.4988610731837180   0.0013549302298511   0.2696222596130664 Br
   0.7325942666933639   -0.0017669922746263   0.5013335397527092 Br
   0.2673826280786420   0.0017303221062588   0.4980477659869065 Br
   0.4987612035031960   0.4988138752907866   0.2334993303254473 Br
   0.5018599166176025   0.5017323427385952   0.7564011148735542 I
   0.5018552949152053   0.7482420458567034   -0.0008748538349483 I
   0.4979786498097683   0.2519377481960223   0.0032800296940595 I
   0.7491673287251412   0.5018458697315046   -0.0007426822145931 I
   0.2510292836699419   0.4979705748034843   0.0032675932129006 I
