Random_composition
1.0
  10.9222152260000005  0.0068176920000000  0.0181911480000000
  0.0069268970000000  10.8918139580000002  0.0240129680000000
  0.0180179600000000  0.0235197960000000  11.0558017070000005
Cs Rb Pd Pt Cl Br I
6 2 3 1 8 11 5
Direct
   0.7589055125818784   0.2440099371784671   0.2553243364433887 Cs
   0.2362251531347414   0.7614637845487997   0.7477791305312594 Cs
   0.2424903010462718   0.7566620671815021   0.2557127195261715 Cs
   0.7625922328994349   0.2377484750712899   0.7474011152055968 Cs
   0.2374590505831848   0.2388370920637296   0.7479616023306778 Cs
   0.7577402314988215   0.7559098802685664   0.2548566146725915 Cs
   0.7634685660917361   0.7625355052314295   0.7470322920503961 Rb
   0.2424956017296412   0.2438881269547974   0.2564917790661892 Rb
   -0.0002612568372949   -0.0002685705476584   0.0002976900115417 Pd
   0.0000441983600799   0.4999016402806457   0.4997507390523863 Pd
   0.4998596902382143   0.0001155554854846   0.4997280477694686 Pd
   0.5001656405934811   0.5001225182101968   -0.0000595174584214 Pt
   0.2153956497153130   -0.0000219173811780   -0.0004158692388851 Cl
   0.7840907592130573   -0.0005799364290087   0.0008873544595525 Cl
   0.0003012143087444   0.2160251905286145   -0.0003503034446589 Cl
   -0.0008937925990238   0.7834513280835864   0.0008496233644164 Cl
   0.0014999837823301   0.0012476849965108   0.2130214357464437 Cl
   -0.0021501165277506   -0.0019263847349913   0.7868470873347014 Cl
   0.2152270741445330   0.5014829097989890   0.5006034683012500 Cl
   0.7848908821303577   0.4981402330687974   0.4990737220648238 Cl
   -0.0030257389150710   0.5002249319932039   0.7272058028400797 Br
   0.0030883839326051   0.4996673445950222   0.2723317044378676 Br
   -0.0037050861006074   0.7306624440844733   0.5015287152238183 Br
   0.0037991989803600   0.2691732856652214   0.4978252490933477 Br
   0.4994406277067338   0.2307627805743293   0.4991409441492303 Br
   0.5000363171299105   0.7695244037793718   0.5014611646802885 Br
   0.5001000906508771   -0.0015469883318973   0.7270463025696403 Br
   0.4997710048886626   0.0017317079864280   0.2725905445940989 Br
   0.7298494933674987   -0.0023363469308012   0.5013294783464872 Br
   0.2699017661979058   0.0024976662940785   0.4976988866543207 Br
   0.4995674570078542   0.4995854640247965   0.2301113779095653 Br
   0.5013341968093014   0.5011650025484655   0.7574932979267357 I
   0.5013024191610626   0.7483252959683301   -0.0020250704995206 I
   0.4986850212343032   0.2519070697046674   0.0027713332222802 I
   0.7477623186040400   0.5014193900193628   -0.0019015557017772 I
   0.2525431070521088   0.4984915394564025   0.0025991502325701 I
