Random_composition
1.0
  10.9231677380000001  0.0020479850000000  0.0207025250000000
  0.0021756300000000  10.8828920720000006  0.0295830660000000
  0.0205400880000000  0.0291405210000000  11.0615291019999997
Cs Rb Pd Pt Cl Br I
6 2 3 1 8 11 5
Direct
   0.7592421279013959   0.2452166520651800   0.2559571542375466 Cs
   0.2357501184628776   0.7603996721330610   0.7467136186531617 Cs
   0.2436378079013104   0.7564963337896992   0.2564497706476060 Cs
   0.7617782859371195   0.2378182314910025   0.7463745561235271 Cs
   0.2376005346717078   0.2390337522355040   0.7482663238869752 Cs
   0.7566621992925600   0.7547953839004280   0.2550972830450696 Cs
   0.7641009443536111   0.7642494925546469   0.7494851987885938 Rb
   0.2439780140396406   0.2446741678276880   0.2572972326669518 Rb
   -0.0005779954749767   -0.0006211533697040   0.0007250662646137 Pd
   0.0001348723069752   0.4997159106768667   0.4994900820752629 Pd
   0.4996933408862429   0.0002667665132712   0.4997660941240997 Pd
   0.5003636571570947   0.5002765719663663   -0.0007095317379495 Pt
   0.2149563190051047   -0.0003645542321247   -0.0011263681378327 Cl
   0.7838351767238866   -0.0010709566577666   0.0023960805594854 Cl
   0.0001092386767566   0.2157856540879835   -0.0011052597385441 Cl
   -0.0014603574373405   0.7829356698821562   0.0023539779401538 Cl
   0.0022570835362404   0.0018431954500835   0.2133139752687886 Cl
   -0.0034261904132250   -0.0031026560449138   0.7873190619999000 Cl
   0.2153754635048546   0.5034704426623831   0.5025450761362625 Cl
   0.7849682915634792   0.4956623315190934   0.4966533932328894 Cl
   -0.0052445804815418   0.5001529292069191   0.7268364477285549 Br
   0.0055334925830329   0.4994626331620419   0.2721549415935439 Br
   -0.0054558162800119   0.7306665600955454   0.5012216250553633 Br
   0.0056413586652314   0.2687708238514847   0.4977460253316003 Br
   0.5000395377152598   0.2311644752510266   0.4995755391577918 Br
   0.4990879817588542   0.7694759205120663   0.5011743051542639 Br
   0.4997791811877140   -0.0020664298203687   0.7270011556433675 Br
   0.4997930348617496   0.0026463632768350   0.2726905753126020 Br
   0.7296386848067953   -0.0028896566225415   0.5014849276838618 Br
   0.2697524275235302   0.0032294271834097   0.4976590357903191 Br
   0.5000246238644366   0.4998987761676228   0.2292865358711186 Br
   0.5013985562922342   0.5012604778874048   0.7570030223523848 I
   0.5014064765805979   0.7487234734660717   -0.0032129297604471 I
   0.4989163239674160   0.2518236483432739   0.0026986736142528 I
   0.7479066997028576   0.5018828239238161   -0.0030303938581701 I
   0.2528026351519719   0.4983179957253108   0.0024467298073896 I
