Random_composition
1.0
  10.9221779570000006  0.0048681810000000  0.0183714620000000
  0.0049868960000000  10.8844888389999994  0.0245298790000000
  0.0181970430000000  0.0240268620000000  11.0551171069999992
Cs Rb Pd Pt Cl Br I
6 2 3 1 8 11 5
Direct
   0.7589286157124092   0.2442252875912292   0.2554632870631584 Cs
   0.2361430905189486   0.7613674086672126   0.7477193932701791 Cs
   0.2427080646330188   0.7566134427057610   0.2558753050225970 Cs
   0.7624729502805309   0.2376971437169288   0.7473400322247596 Cs
   0.2375117473581762   0.2388388730839326   0.7481085720986935 Cs
   0.7575232616111571   0.7557101817942714   0.2548481109334225 Cs
   0.7636961525537990   0.7628943293490775   0.7473874767308778 Rb
   0.2426414170187792   0.2439647685917693   0.2566700893993338 Rb
   -0.0003061094343771   -0.0003165108680551   0.0002725785373390 Pd
   0.0000550260280019   0.4998828641872957   0.4998686915238237 Pd
   0.4998401117127166   0.0001429323028413   0.4998964413294387 Pd
   0.5002178769208613   0.5001758817246641   -0.0001645380648066 Pt
   0.2153287342831714   -0.0000309525862804   -0.0004726448707528 Cl
   0.7840554898228587   -0.0007104855649496   0.0010966127604466 Cl
   0.0003213745429981   0.2160605316866780   -0.0004166254210223 Cl
   -0.0010460744626704   0.7833082429209410   0.0010515276668871 Cl
   0.0016832728099971   0.0014021237561127   0.2131116892827552 Cl
   -0.0024269776729439   -0.0021833165701618   0.7868734504957224 Cl
   0.2153219635074395   0.5017570714366760   0.5007948922562165 Cl
   0.7848363325872688   0.4978034737355739   0.4987301624034384 Cl
   -0.0033817933052593   0.5002435608426470   0.7271448268403403 Br
   0.0034703514927777   0.4996073883198338   0.2722812347126077 Br
   -0.0040469511796746   0.7308003765409314   0.5015702547455710 Br
   0.0041550250589121   0.2689921118441382   0.4976985109163286 Br
   0.4994997623908634   0.2309465741767596   0.4991469845291985 Br
   0.4999166263544345   0.7694085101515801   0.5014376826031186 Br
   0.5000824626249809   -0.0016703832409696   0.7269686653297434 Br
   0.4997401096809172   0.0018933305556982   0.2725798895868433 Br
   0.7298413984528855   -0.0025165426928946   0.5014504526107550 Br
   0.2698666660261747   0.0026937891176816   0.4975981731569119 Br
   0.4995730224315020   0.4995691232692784   0.2298860987593737 Br
   0.5013514227153900   0.5011841270846578   0.7573312317147245 I
   0.5013981931827186   0.7484692921475949   -0.0023537768775009 I
   0.4986132638818163   0.2518579497567031   0.0028142352573976 I
   0.7478269938466936   0.5015580700897019   -0.0022380435893471 I
   0.2525866940074948   0.4983602984742243   0.0026327080073109 I
