Random_composition
1.0
  10.9073890870000003  0.0071080340000000  0.0150742610000000
  0.0071679860000000  10.9275565130000007  0.0196778870000000
  0.0148796660000000  0.0192500400000000  11.0336545009999991
Cs Rb Pd Pt Cl Br I
6 2 3 1 8 11 5
Direct
   0.7581826633505676   0.2440122618959134   0.2552218134685615 Cs
   0.2376531117582395   0.7603304579992126   0.7463208003644130 Cs
   0.2423346930472307   0.7562285863559590   0.2554209036238853 Cs
   0.7618269081006073   0.2393391600875649   0.7461132966106087 Cs
   0.2382511796227956   0.2399249827087893   0.7461124799666761 Cs
   0.7579230244837685   0.7560168741563634   0.2553522095182451 Cs
   0.7609565327049381   0.7596525568262965   0.7457049506759666 Rb
   0.2430136674697447   0.2445133117867916   0.2555640330205277 Rb
   -0.0000652481886393   -0.0000679336842609   0.0001461275010416 Pd
   0.0000217395167609   0.4999686575814314   0.4999514299677836 Pd
   0.4999539939514631   0.0000599559161952   0.4997983562655186 Pd
   0.5001050008174366   0.5000820687170081   0.0010477696442539 Pt
   0.2158180622316851   0.0004474202151865   0.0003505545616476 Cl
   0.7840782500210854   -0.0005902744947270   -0.0001556859361764 Cl
   0.0006060887860757   0.2153114632789755   0.0003900782841126 Cl
   -0.0007473386091289   0.7845778071188501   -0.0001565725892347 Cl
   0.0010075288581534   0.0008763457810839   0.2133252919420713 Cl
   -0.0012875421170184   -0.0011676915637977   0.7864486227715500 Cl
   0.2155688383317663   0.4998904164411093   0.4995809567392951 Cl
   0.7844900929944091   0.4999451237074424   0.5005301305596657 Cl
   -0.0018988927627617   0.5009730470041740   0.7279057480609183 Br
   0.0019257881629324   0.4990200437820237   0.2720296625077661 Br
   -0.0025178704611450   0.7298195270441261   0.5014935575834312 Br
   0.0024833707719795   0.2701436884628947   0.4977613453047426 Br
   0.4987483354372256   0.2298395846174283   0.4986914335178235 Br
   0.5009654376474163   0.7703161776341499   0.5015863167585664 Br
   0.5009140173623355   -0.0014071093389568   0.7275700702405283 Br
   0.4990883648491893   0.0014536401905979   0.2720891801430525 Br
   0.7303154977861425   -0.0019464997996758   0.5012654090334137 Br
   0.2696235878867195   0.0019383397824117   0.4977750101505770 Br
   0.4989925401524656   0.4990506039364119   0.2316601262609307 Br
   0.5016219617902801   0.5014608558126208   0.7580562477111261 I
   0.5015383795593629   0.7473802458195690   -0.0007701151470254 I
   0.4982713321431597   0.2528255584470289   0.0032567500747252 I
   0.7481253449810680   0.5015406942242430   -0.0006223412031964 I
   0.2521126951757938   0.4982410023251019   0.0031825590773940 I
