Random_composition
1.0
  10.9160729849999996  0.0088428020000000  0.0161675300000000
  0.0089154090000000  10.9225230500000006  0.0212171160000000
  0.0159840940000000  0.0207767230000000  11.0448992050000001
Cs Rb Pd Pt Cl Br I
6 2 3 1 8 11 5
Direct
   0.7584647571909680   0.2438933815293221   0.2551877325273094 Cs
   0.2371116348705626   0.7608328711799534   0.7469270346542237 Cs
   0.2422797010849393   0.7564351269023979   0.2554521785543407 Cs
   0.7622024083758776   0.2387266227618373   0.7466507232149145 Cs
   0.2378931034288722   0.2394877980240148   0.7467666714412774 Cs
   0.7579695275349126   0.7560831839766359   0.2551615499604201 Cs
   0.7618512290156086   0.7606275953857640   0.7460588159776920 Rb
   0.2427286110995476   0.2442190291223767   0.2558451645397241 Rb
   -0.0001220958375567   -0.0001257975725501   0.0002457825100456 Pd
   0.0000251313051509   0.4999519017607864   0.4997711571415640 Pd
   0.4999264956628512   0.0000594720381324   0.4995813958230182 Pd
   0.5001162155261378   0.5000895162477033   0.0003996323301335 Pt
   0.2156037878779241   0.0002666268919746   0.0000587205211778 Cl
   0.7841768840500200   -0.0005216411119341   0.0001596089189297 Cl
   0.0004769692725905   0.2155292677004121   0.0001149289900452 Cl
   -0.0007286710801194   0.7842449343998457   0.0001477935683863 Cl
   0.0011041019534829   0.0009392400959352   0.2132850809870724 Cl
   -0.0014803095955117   -0.0013300222406525   0.7864709302420435 Cl
   0.2155727614554423   0.5004070155948752   0.4999137995496896 Cl
   0.7844885126783993   0.4993738145557320   0.5001233043199895 Cl
   -0.0021651422712833   0.5006600005488129   0.7276773010346744 Br
   0.0021956738860863   0.4993155818723793   0.2721618739077830 Br
   -0.0028026649761305   0.7300095005117451   0.5014836725181886 Br
   0.0028137960835689   0.2699185020853347   0.4978676141479658 Br
   0.4990095579495717   0.2300523549180982   0.4988856030489409 Br
   0.5006404016918611   0.7701244741340577   0.5015524323188509 Br
   0.5005896202594526   -0.0013946602356798   0.7275735290845299 Br
   0.4993871024094543   0.0014803134761079   0.2721921386748810 Br
   0.7300671388545534   -0.0019930938213635   0.5012231259500536 Br
   0.2698144891913283   0.0020490851809797   0.4978120839694513 Br
   0.4992316080332651   0.4992865647015624   0.2308536447200343 Br
   0.5014960462584145   0.5013253227172746   0.7584438042050385 I
   0.5013900071685612   0.7478481608133561   -0.0010813515758980 I
   0.4984862347695603   0.2522886672667679   0.0030419354945930 I
   0.7478032356170677   0.5014168284574146   -0.0009405925818649 I
   0.2523810094042774   0.4984212273591515   0.0029311776287310 I
