Random_composition
1.0
  10.9218066559999993  0.0029050530000000  0.0192779470000000
  0.0030306490000000  10.8779350469999994  0.0271478070000000
  0.0191023390000000  0.0266598700000000  11.0590699190000006
Cs Rb Pd Pt Cl Br I
6 2 3 1 8 11 5
Direct
   0.7590126602767775   0.2449668126849294   0.2558883796863243 Cs
   0.2359501468883706   0.7607744823156061   0.7471584922852513 Cs
   0.2434249675808777   0.7564430478642559   0.2563589449448881 Cs
   0.7619649535019752   0.2377498062216064   0.7467966614414657 Cs
   0.2376741925998317   0.2389801120075229   0.7482935187286046 Cs
   0.7568364621420499   0.7550333983672536   0.2549556397119411 Cs
   0.7641010385953373   0.7638224363448342   0.7486681662412189 Rb
   0.2433861966170217   0.2443825096268428   0.2571611885471036 Rb
   -0.0004815085219320   -0.0005105051247720   0.0005491548235835 Pd
   0.0001090725185406   0.4997896815266279   0.4996269798419647 Pd
   0.4997526870103176   0.0002228304006159   0.4997870332055722 Pd
   0.5003133663354586   0.5002413750781870   -0.0006235127288414 Pt
   0.2151123937960974   -0.0001280721257558   -0.0008159319468439 Cl
   0.7838902502184657   -0.0010587236050401   0.0018561187764354 Cl
   0.0003067776416850   0.2159582785383545   -0.0007883762172395 Cl
   -0.0014399943185786   0.7830002863317673   0.0017977117086237 Cl
   0.0021456480742697   0.0017818817032121   0.2130758083083576 Cl
   -0.0031625252142720   -0.0028654327157043   0.7872948467618603 Cl
   0.2153252939145501   0.5028111857782550   0.5017672182209130 Cl
   0.7849599633798723   0.4965110665687122   0.4975462165554168 Cl
   -0.0045417589800182   0.5002558343782471   0.7270373336850752 Br
   0.0047444083572997   0.4994624973897215   0.2721548238783920 Br
   -0.0049858958365724   0.7307309446159459   0.5015302747705075 Br
   0.0051447579374948   0.2688588742778759   0.4975899357816530 Br
   0.4998267048928777   0.2312043120160956   0.4993455794818825 Br
   0.4994047435521716   0.7693430880240006   0.5013176121281916 Br
   0.4999587703125827   -0.0019766525992454   0.7272913131047725 Br
   0.4997148789535907   0.0023971644781553   0.2723982638100745 Br
   0.7297808996477606   -0.0028676524313530   0.5016560355982796 Br
   0.2697380344703776   0.0031340979947740   0.4975223921070604 Br
   0.4997840523240737   0.4997055152894618   0.2293320594966697 Br
   0.5014003429110752   0.5012493575477101   0.7571474157659678 I
   0.5015937311048337   0.7490444027716147   -0.0031326875133617 I
   0.4986193030517635   0.2514655333897964   0.0028411888129028 I
   0.7478850797283262   0.5019323494172937   -0.0030060440635262 I
   0.2527512442104256   0.4981548312816360   0.0026199005799211 I
