Random_composition
1.0
  10.9207276239999995  0.0043610460000000  0.0213185340000000
  0.0044777870000000  10.8930365180000006  0.0308115490000000
  0.0211652090000000  0.0304204070000000  11.0615767869999999
Cs Rb Pd Pt Cl Br I
6 2 3 1 8 11 5
Direct
   0.7596874941694950   0.2450021476112777   0.2557371100993960 Cs
   0.2354555308779721   0.7603118203913685   0.7464970146077804 Cs
   0.2434158246073645   0.7568315625351797   0.2562294357549598 Cs
   0.7618752366597222   0.2377663788468038   0.7461957861316542 Cs
   0.2373909078456390   0.2389747193278448   0.7483260435631300 Cs
   0.7568497420411855   0.7548958650212026   0.2551286870261642 Cs
   0.7638815968443934   0.7644942129376482   0.7499997579959442 Rb
   0.2444782257071560   0.2448343820304497   0.2571942871126395 Rb
   -0.0006137192244915   -0.0006691662128929   0.0007208467468293 Pd
   0.0001440310393869   0.4996492603524915   0.4993928142589338 Pd
   0.4996573678358056   0.0003047244752368   0.4997170615746810 Pd
   0.5004137750616369   0.5003247884367178   -0.0006087621992975 Pt
   0.2149718881756510   -0.0005378347490506   -0.0012770615127849 Cl
   0.7837397044530602   -0.0010226234351496   0.0026807504613988 Cl
   -0.0000502315057356   0.2154576352213082   -0.0012382965726080 Cl
   -0.0014003802479433   0.7831641004736882   0.0026614067382998 Cl
   0.0022973177056246   0.0018418175823948   0.2132448493305112 Cl
   -0.0035687156625805   -0.0032305290018373   0.7874922160849821 Cl
   0.2153415311382796   0.5037517811272052   0.5030944474479450 Cl
   0.7850298256311340   0.4952137298770680   0.4958909673089529 Cl
   -0.0059129832153393   0.5001134103654233   0.7268852300274401 Br
   0.0062325908375455   0.4993864548959502   0.2721176481469521 Br
   -0.0058176092897104   0.7302441651687772   0.5009470327536569 Br
   0.0060132386477162   0.2690636530817373   0.4978098190402583 Br
   0.5000051154221429   0.2309740389713618   0.4996913245246548 Br
   0.4990526330126742   0.7697505379100341   0.5010744697422077 Br
   0.4996725266944670   -0.0021621088389303   0.7272366758441988 Br
   0.4998027910519652   0.0028322017099007   0.2724835464891577 Br
   0.7297007419528740   -0.0028570057492977   0.5012822299631061 Br
   0.2696267739617085   0.0032408285700358   0.4977474914764791 Br
   0.4999885281965037   0.4998600795401588   0.2293009001401183 Br
   0.5015151594333230   0.5013506529313062   0.7571200022455832 I
   0.5011488821365876   0.7486989452205060   -0.0029744704894576 I
   0.4991386010706893   0.2519705271042862   0.0025995836826561 I
   0.7480225775794512   0.5017352562315217   -0.0027162479422112 I
   0.2528136580210788   0.4984410957673942   0.0023145562050477 I
