Random_composition
1.0
  10.9192114819999997  0.0097152710000000  0.0173991410000000
  0.0098063610000000  10.9034826630000001  0.0228489830000000
  0.0172254420000000  0.0223781550000000  11.0514856070000000
Cs Rb Pd Pt Cl Br I
6 2 3 1 8 11 5
Direct
   0.7587602448202618   0.2438109130442684   0.2551763167769571 Cs
   0.2365442603756998   0.7613478216532817   0.7475654046360954 Cs
   0.2422618986464588   0.7566333408915408   0.2555101322246384 Cs
   0.7625710133080037   0.2380771474241273   0.7472182828969374 Cs
   0.2375373114917556   0.2390268185393556   0.7474918602688856 Cs
   0.7579753859192335   0.7561125970017615   0.2549571682676022 Cs
   0.7628153402987881   0.7616992122609071   0.7464818676287053 Rb
   0.2424593946146077   0.2439314186129471   0.2561626491352560 Rb
   -0.0001842360637498   -0.0001873549802823   0.0002060796621377 Pd
   0.0000245301744586   0.4999315222650029   0.4998211862886461 Pd
   0.4998951439492579   0.0000788627788555   0.4997509518966990 Pd
   0.5001140517571304   0.5000810311753123   0.0002861246197929 Pt
   0.2153061499316200   0.0000709445906621   -0.0002368697897878 Cl
   0.7843373570816446   -0.0004642409010125   0.0005269708862793 Cl
   0.0003387427869714   0.2155779460831012   -0.0001648312926895 Cl
   -0.0007278379794076   0.7840610309705448   0.0005010789304664 Cl
   0.0012347681284060   0.0010312144620555   0.2128939979257866 Cl
   -0.0017300003430863   -0.0015447776645431   0.7869399378858093 Cl
   0.2154111554481877   0.5009786704221942   0.5002635278561735 Cl
   0.7846613257288819   0.4987366237220754   0.4996244069505119 Cl
   -0.0024961459783020   0.5003306642571453   0.7273846856265324 Br
   0.0025333381904415   0.4996196697308430   0.2721842318508010 Br
   -0.0031595083185928   0.7302784870396154   0.5014655087172021 Br
   0.0032208163499533   0.2696107020173094   0.4979451474586877 Br
   0.4992873416278326   0.2303989739196203   0.4990612704061947 Br
   0.5002882075814986   0.7697987395609758   0.5014869940301594 Br
   0.5002471113722697   -0.0013993529003598   0.7273961519411697 Br
   0.4996950924301584   0.0015301718987585   0.2721906247475691 Br
   0.7299691358836511   -0.0020761492057222   0.5011766561473674 Br
   0.2698485520434609   0.0021982177434521   0.4978122250342356 Br
   0.4994798131642492   0.4995262101425460   0.2302265871666081 Br
   0.5013683089868319   0.5011934695329152   0.7580948986376342 I
   0.5012522377170989   0.7481374375841205   -0.0014917033365348 I
   0.4986945180075708   0.2519665037568898   0.0027992585345045 I
   0.7476086865605680   0.5013102075603753   -0.0013574806043328 I
   0.2525571592627182   0.4985853777418368   0.0026506439583835 I
