Random_composition
1.0
  10.4854273990000006  0.0005048440000000  0.0034309420000000
  0.0005048440000000  10.5073080060000006  0.0046115110000000
  0.0034309410000000  0.0046115110000000  10.4792480309999991
Cs Rb Pd Pt Cl Br I
6 2 3 1 8 11 5
Direct
   0.7512105017827945   0.2490869584818392   0.2509725855623845 Cs
   0.2481969107852761   0.7515198459919907   0.7490397007054109 Cs
   0.2487862190924377   0.7509113694005592   0.2509715950125200 Cs
   0.7518067068980780   0.2484828890279648   0.7490398824416716 Cs
   0.2481944266010758   0.2484823410451754   0.7490406331683641 Cs
   0.7512139977836984   0.7509138771434977   0.2509721855002743 Cs
   0.7513351419210245   0.7511272538154746   0.7492740278581672 Rb
   0.2490965586168653   0.2493148559249446   0.2507341784622012 Rb
   -0.0000000006244520   -0.0000000008375992   0.0000019085344622 Pd
   -0.0000026619566791   0.4999990688703063   0.5000057487356685 Pd
   0.4999971963460356   -0.0000036626284376   0.5000668502174348 Pd
   0.4999907010177029   0.4999912703493845   0.0033188302784957 Pt
   0.2437525290680830   0.0001338392622057   0.0001415256137460 Cl
   0.7562496277384039   -0.0001285879321189   -0.0001463898574679 Cl
   0.0001341376732553   0.2436846123652854   0.0001417835999849 Cl
   -0.0001298293043875   0.7563174832146956   -0.0001476557241461 Cl
   0.0001473253425317   0.0001472685393357   0.2434190705152521 Cl
   -0.0001455018904492   -0.0001455011188958   0.7565629849331846 Cl
   0.2437051374650980   0.4998560690137835   0.4998993014146343 Cl
   0.7563069336160376   0.5001377732413586   0.5001731754443047 Cl
   -0.0002137422508724   0.5002271796449342   0.7457552208972841 Br
   0.0002141762049944   0.4997700538459758   0.2541474886551506 Br
   -0.0002282088732966   0.7459325696409784   0.5002382700756642 Br
   0.0002305136149478   0.2540665181964927   0.4997760872807576 Br
   0.4997689769685645   0.2459481751467306   0.4997201243276406 Br
   0.5002278964987995   0.7540685932678978   0.5001605397622754 Br
   0.5002267331436688   -0.0002095772279434   0.7458631281975262 Br
   0.4997696501774604   0.0002118813054025   0.2540148238069613 Br
   0.7461254113793566   -0.0002239891048694   0.5002363818863457 Br
   0.2538737886740087   0.0002271852944729   0.4997770747094797 Br
   0.4997610051805890   0.4997669498172798   0.2477334881769290 Br
   0.5003991599814348   0.5003922327714162   0.7485752386062133 I
   0.5004060232063072   0.7525732239623634   -0.0002793486454390 I
   0.4996013153172971   0.2474168830767763   0.0005167289838078 I
   0.7526234221097240   0.5004042157007885   -0.0002557270184199 I
   0.2473686423579951   0.4996011007232064   0.0005360476770124 I
