Random_composition
1.0
  10.9046080360000008  0.0065677650000000  0.0149057250000000
  0.0066260380000000  10.9259119780000002  0.0194012760000000
  0.0147119390000000  0.0189767670000000  11.0283520070000005
Cs Rb Pd Pt Cl Br I
6 2 3 1 8 11 5
Direct
   0.7581334407916922   0.2440407056024619   0.2552325831227548 Cs
   0.2377567713203053   0.7602338135960355   0.7462145342916329 Cs
   0.2423527508377175   0.7561877913446905   0.2554195356393569 Cs
   0.7617493403112087   0.2394527769486743   0.7460198839480008 Cs
   0.2383253526459743   0.2400072432974812   0.7460027695744293 Cs
   0.7579056040616119   0.7559969278991900   0.2553840828302257 Cs
   0.7607937522726177   0.7594783132798459   0.7456531097262198 Rb
   0.2430715835018541   0.2445704043212752   0.2555152267643190 Rb
   -0.0000569992831887   -0.0000596875901336   0.0001325680963142 Pd
   0.0000212257047126   0.4999721603171435   0.4999821897452110 Pd
   0.4999580267328534   0.0000596258960273   0.4998177971490922 Pd
   0.5001089767996606   0.5000889008186801   0.0009532838928065 Pt
   0.2158088495582489   0.0004763878153868   0.0004029586742977 Cl
   0.7841067789020636   -0.0006046050128473   -0.0002090928823056 Cl
   0.0006270397532226   0.2151964551229419   0.0004402804421486 Cl
   -0.0007534877471177   0.7847124244401089   -0.0002070292138475 Cl
   0.0009967575821696   0.0008712941056872   0.2130906083607535 Cl
   -0.0012614812509274   -0.0011468441779534   0.7866779232315306 Cl
   0.2155464258208770   0.4998031250128747   0.4995261578866235 Cl
   0.7845125655529489   0.5000395282098292   0.5005929138856797 Cl
   -0.0018588317453563   0.5010270538271118   0.7279806754430929 Br
   0.0018856733601364   0.4989685447873930   0.2719754741519754 Br
   -0.0024763860251580   0.7298575659447690   0.5014943974168616 Br
   0.0024336028905081   0.2701109518319399   0.4977419314121680 Br
   0.4987029651630242   0.2299150626446848   0.4986570814630389 Br
   0.5010200250684415   0.7702396711763014   0.5015906544630657 Br
   0.5009693886999390   -0.0014111317896253   0.7276082646548355 Br
   0.4990356352622412   0.0014515787304875   0.2720500168721169 Br
   0.7304781690344628   -0.0019421926618543   0.5012770149883506 Br
   0.2694699415170878   0.0019233281276599   0.4977702957478818 Br
   0.4989495686451858   0.4990054124271170   0.2320629094523346 Br
   0.5016445364365640   0.5014879274810806   0.7578932113787392 I
   0.5015677019784632   0.7472565620324519   -0.0007166946641129 I
   0.4982293017143133   0.2529596634299190   0.0033056426537250 I
   0.7482465127082472   0.5015678751176038   -0.0005671031831917 I
   0.2520009195463014   0.4982031234124604   0.0032378334740715 I
