Random_composition
1.0
  10.7801202939999996  0.0035864260000000  0.0145491670000000
  0.0036168050000000  10.8188152740000003  0.0193263740000000
  0.0143791840000000  0.0189714540000000  10.8808045779999993
Cs Rb Pd Pt Cl Br I
6 2 3 1 8 11 5
Direct
   0.7572239577976297   0.2446823007614597   0.2552076163687815 Cs
   0.2393430650882796   0.7588807170414398   0.7453999644121546 Cs
   0.2429691993896779   0.7554104108906367   0.2552739217496732 Cs
   0.7604582189959976   0.2410026034572356   0.7453316711820387 Cs
   0.2395753342374619   0.2412345149615743   0.7452842417914111 Cs
   0.7571693558315471   0.7553544886477207   0.2553198647516910 Cs
   0.7585941979929439   0.7573389547871218   0.7458103316046143 Rb
   0.2442301539038587   0.2455872834385787   0.2546264224446068 Rb
   -0.0000140937114728   -0.0000141018807617   0.0001379013453672 Pd
   0.0000287759503669   0.4999911375890265   0.5001272218981822 Pd
   0.4999869939201968   0.0000555286326779   0.5000185871880204 Pd
   0.5000784168086694   0.5000654349636848   0.0011037624923856 Pt
   0.2198628341386523   0.0006515030431768   0.0006845622181846 Cl
   0.7801361008251571   -0.0006855318099363   -0.0005934378770612 Cl
   0.0007189492159836   0.2182802785679824   0.0007068386838703 Cl
   -0.0007549733330314   0.7817162837051476   -0.0005989223481551 Cl
   0.0008761506451280   0.0008267626647883   0.2178148920352274 Cl
   -0.0009860985043896   -0.0009382723707872   0.7819396460365849 Cl
   0.2195814104731823   0.4993300354282569   0.4993330222436067 Cl
   0.7804753371401952   0.5005861885190021   0.5008251162878310 Cl
   -0.0014341831371888   0.5012115320779715   0.7321613220363750 Br
   0.0014448649217462   0.4987768846199848   0.2677623156374862 Br
   -0.0018533342474986   0.7327230428746822   0.5013531899960992 Br
   0.0018070623210330   0.2672707522819951   0.4981495895248354 Br
   0.4986086566982557   0.2325203678077274   0.4984789355340247 Br
   0.5012482439733810   0.7676018974263806   0.5012361223051830 Br
   0.5011893694208893   -0.0012765817794808   0.7318165423136583 Br
   0.4988008215600764   0.0012827851768765   0.2679221054898442 Br
   0.7342031098962520   -0.0016224706035390   0.5012818007819099 Br
   0.2657818526290318   0.0015838079699225   0.4982152236366873 Br
   0.4986824900064408   0.4987256057758299   0.2356862499651375 Br
   0.5019794558360989   0.5018781675369803   0.7570586414678845 I
   0.5020252071590697   0.7494680527452502   -0.0008904257397622 I
   0.4978511231811927   0.2506356224017966   0.0033731699552484 I
   0.7509206694719249   0.5020097872246373   -0.0007524534665402 I
   0.2491911464404545   0.4978550558161495   0.0033952216606957 I
