Random_composition
1.0
  10.9232413190000006  0.0086103360000000  0.0179073900000000
  0.0087111390000000  10.8987246080000002  0.0235185890000000
  0.0177342110000000  0.0230329050000000  11.0572280989999996
Cs Rb Pd Pt Cl Br I
6 2 3 1 8 11 5
Direct
   0.7588589477262151   0.2438659074266234   0.2552263017053455 Cs
   0.2363406500404949   0.7614746219594327   0.7477487913889400 Cs
   0.2423379390299973   0.7566762800037086   0.2555906757349184 Cs
   0.7626384505326484   0.2378552732026629   0.7473789128192768 Cs
   0.2374540415785084   0.2388840932991430   0.7477777908741173 Cs
   0.7578944288032975   0.7560474987598862   0.2548872912146641 Cs
   0.7632027478874401   0.7621670651591679   0.7467412142412468 Rb
   0.2424252797344745   0.2438678579610211   0.2563294654565885 Rb
   -0.0002208964097049   -0.0002261208623568   0.0002748675974279 Pd
   0.0000340804117864   0.4999170942156407   0.4997619652556146 Pd
   0.4998769690418062   0.0000968515618869   0.4997343078100204 Pd
   0.5001262937766145   0.5000859655302734   0.0001964983538966 Pt
   0.2153780229275229   0.0000058297087364   -0.0003479167948849 Cl
   0.7841904706136229   -0.0004944111873145   0.0007080276532106 Cl
   0.0003025321825739   0.2158457835033217   -0.0002760009836149 Cl
   -0.0007853940145039   0.7837165819625390   0.0006757711884351 Cl
   0.0013516074028980   0.0011234150446518   0.2129375783895907 Cl
   -0.0019206588742165   -0.0017155846405401   0.7868838975027075 Cl
   0.2152940408529249   0.5012411932922758   0.5004370092113137 Cl
   0.7847947453463407   0.4984318080508790   0.4993569737506287 Cl
   -0.0027359789206247   0.5002421786617081   0.7272992771821767 Br
   0.0027820483790948   0.4996837202530203   0.2722534343847269 Br
   -0.0034135482381678   0.7304991091618299   0.5014901356631896 Br
   0.0034937806410584   0.2693665204276285   0.4979134251124929 Br
   0.4993810516466594   0.2306044194245589   0.4991164013959918 Br
   0.5001475574476986   0.7696279630155641   0.5014713497126497 Br
   0.5001423889124840   -0.0014539649397963   0.7272191437488091 Br
   0.4997679079403348   0.0016096410364579   0.2723840530113906 Br
   0.7299198014136491   -0.0021864603695287   0.5012296404024973 Br
   0.2698660614715985   0.0023324986720670   0.4977705530565679 Br
   0.4995473332503502   0.4995820419500666   0.2301765798422661 Br
   0.5013362966915706   0.5011633779350178   0.7576849862276214 I
   0.5012480065318718   0.7482494231918342   -0.0017503314591995 I
   0.4987225569003170   0.2519049314623202   0.0027506651621308 I
   0.7476939602053408   0.5013310830067388   -0.0016197411213595 I
   0.2525258616945511   0.4985763234930113   0.0025885428984480 I
