Random_composition
1.0
  10.9242575130000006  0.0023257930000000  0.0202812700000000
  0.0024532080000000  10.8806477279999996  0.0288769620000000
  0.0201149290000000  0.0284152500000000  11.0623089480000001
Cs Rb Pd Pt Cl Br I
6 2 3 1 8 11 5
Direct
   0.7591453914111354   0.2451821864199530   0.2559676704002327 Cs
   0.2358267120823599   0.7604942370266681   0.7468392367661081 Cs
   0.2436134162743725   0.7564509371569047   0.2564550690906787 Cs
   0.7618065552986629   0.2378053687875684   0.7464917620529234 Cs
   0.2376465470175100   0.2390303297702408   0.7482766749126366 Cs
   0.7566763994673691   0.7548339868175578   0.2550540165302690 Cs
   0.7641255557323789   0.7641339864021705   0.7492483471726347 Rb
   0.2437936664556002   0.2445922681467938   0.2572801470806974 Rb
   -0.0005550993828447   -0.0005946902894337   0.0007709449274504 Pd
   0.0001315930948743   0.4997365703264480   0.4994541811429425 Pd
   0.4997087585777434   0.0002543571374873   0.4997390646628075 Pd
   0.5003467092434674   0.5002657543458535   -0.0006738034452810 Pt
   0.2150326130148780   -0.0002794431589896   -0.0010416509851644 Cl
   0.7838150821362494   -0.0010869180314890   0.0022305127885871 Cl
   0.0001840797027604   0.2158767220964280   -0.0010203653978455 Cl
   -0.0014760271956934   0.7829094080685091   0.0021805475324577 Cl
   0.0022396151506130   0.0018404657828325   0.2132422301518206 Cl
   -0.0033639072570836   -0.0030478284509372   0.7872593576327676 Cl
   0.2153776790216272   0.5032913221489521   0.5023181298656282 Cl
   0.7849492299940879   0.4959028005548936   0.4969405656851377 Cl
   -0.0050309261256989   0.5001904351568675   0.7269258245437241 Br
   0.0052928284701709   0.4994596186866540   0.2721610644251358 Br
   -0.0053209159026359   0.7307025069884290   0.5013435687318375 Br
   0.0054996431142921   0.2687831783314345   0.4976950873914591 Br
   0.4999896162409764   0.2311768165089184   0.4995072834635689 Br
   0.4991680520690543   0.7694355025202843   0.5012233254609411 Br
   0.4998398584308625   -0.0020443106410023   0.7271060394502280 Br
   0.4997657841312045   0.0025771748676278   0.2726112340913943 Br
   0.7296814593055043   -0.0028958916745621   0.5015647984471454 Br
   0.2697467283249930   0.0032142305458773   0.4976100742108737 Br
   0.4999599933032455   0.4998463446320788   0.2292854181174727 Br
   0.5013963848983366   0.5012563152063639   0.7570043762417600 I
   0.5014956849740845   0.7488419576183597   -0.0032348807390174 I
   0.4988080216216920   0.2516846278490387   0.0027485810190142 I
   0.7479053347795824   0.5019294787364241   -0.0030728366630370 I
   0.2527766538180692   0.4982489082040905   0.0025072029515576 I
