Random_composition
1.0
  10.8141612640000009  0.0044302350000000  0.0144538030000000
  0.0044502280000000  10.8942568459999993  0.0190067790000000
  0.0142097240000000  0.0186243670000000  10.9698767620000002
Cs Rb Pd Pt Cl Br I
6 2 3 1 8 11 5
Direct
   0.7576330106618915   0.2443865507142575   0.2552384480978545 Cs
   0.2386031904657496   0.7595124936860955   0.7457299264028509 Cs
   0.2426880873716784   0.7557687597296791   0.2553563330909001 Cs
   0.7610637212583107   0.2402818179828945   0.7456075331514617 Cs
   0.2389870802213029   0.2406585140776239   0.7455591126568203 Cs
   0.7575158059872457   0.7556612286398972   0.2553919602364305 Cs
   0.7596067127175589   0.7583167135246507   0.7456745242906068 Rb
   0.2436985006124580   0.2451181507526083   0.2550565319979397 Rb
   -0.0000250414157015   -0.0000267201297656   0.0000648019866324 Pd
   0.0000162508996146   0.4999822575921626   0.4996033074704767 Pd
   0.4999725497904658   0.0000417093241168   0.4993786914249033 Pd
   0.5000659097778378   0.5000513089970913   0.0036078601421837 Pt
   0.2173260513787019   0.0005880312073995   0.0005923161789664 Cl
   0.7826431464179011   -0.0006580601605393   -0.0004411774497184 Cl
   0.0006894686207823   0.2169102131928720   0.0006105146134896 Cl
   -0.0007599829485094   0.7830549258081899   -0.0004359545124921 Cl
   0.0009328073816099   0.0008441952535632   0.2152549680533277 Cl
   -0.0011136834029890   -0.0010295952848684   0.7845426027084613 Cl
   0.2170506202035542   0.4994940884084196   0.4994275813856554 Cl
   0.7830165090023763   0.5003915272673721   0.5008079599847093 Cl
   -0.0016265859314728   0.5011606209075387   0.7304774916839237 Br
   0.0016438110855439   0.4988323777376818   0.2697901816152322 Br
   -0.0021529044854684   0.7316892002054722   0.5014645270936835 Br
   0.0021009656534213   0.2682970113623266   0.4979572961090492 Br
   0.4986132784078265   0.2317014918665465   0.4985652402036375 Br
   0.5011830912300872   0.7684508080926103   0.5014486801443103 Br
   0.5011263435757742   -0.0013500945145441   0.7301278449403159 Br
   0.4988734325315172   0.0013697043784321   0.2699668749492775 Br
   0.7322679808302293   -0.0017955635768475   0.5013438336694012 Br
   0.2677068934909694   0.0017604497405276   0.4980144513332300 Br
   0.4987773230245727   0.4988316166801628   0.2330572753006541 Br
   0.5018355848246477   0.5017030356482828   0.7562683691520178 I
   0.5018210386935550   0.7479943938438401   -0.0008714944368999 I
   0.4980045304622136   0.2522010466704356   0.0032615144036892 I
   0.7488123342078983   0.5018126936363001   -0.0007403026584658 I
   0.2514025528783461   0.4979941201822187   0.0032416966583053 I
