Random_composition
1.0
  10.7909541590000000  0.0035162750000000  0.0161057090000000
  0.0035432170000000  10.8384707739999993  0.0216022580000000
  0.0159767110000000  0.0213112840000000  10.8712479299999991
Cs Rb Pd Pt Cl Br I
6 2 3 1 8 11 5
Direct
   0.7569233631404703   0.2448777290849731   0.2551859104455003 Cs
   0.2398478516440010   0.7584664112622083   0.7451731894405178 Cs
   0.2431811558026963   0.7551707277109523   0.2552190898452169 Cs
   0.7600476637847673   0.2414794140633965   0.7451400653408395 Cs
   0.2399722493572866   0.2416066818291725   0.7451091060627093 Cs
   0.7569002849084281   0.7551433182038689   0.2552519086447173 Cs
   0.7579071481477547   0.7566896034374169   0.7459352611769144 Rb
   0.2446090997628723   0.2459037026520094   0.2543156351133483 Rb
   -0.0000048147376322   -0.0000039313882812   0.0001232758631076 Pd
   0.0000331907031080   0.4999968940602685   0.5001181500545087 Pd
   0.4999939278863270   0.0000448712140051   0.4999956131049395 Pd
   0.5000549483440020   0.5000466232842625   0.0023910892766978 Pt
   0.2201469171441618   0.0007048608923857   0.0007643235884123 Cl
   0.7798591028740186   -0.0007157037740866   -0.0007068850792285 Cl
   0.0007490861776889   0.2184478381239911   0.0007909826850310 Cl
   -0.0007624587050015   0.7815565763519401   -0.0007240297449388 Cl
   0.0008671966726246   0.0008472437514364   0.2183877827174748 Cl
   -0.0009286467253414   -0.0009087421092689   0.7814001338294768 Cl
   0.2201170606918006   0.4992479442628008   0.4993483738694044 Cl
   0.7799332332778137   0.5006890332903751   0.5008654612323326 Cl
   -0.0013097941122515   0.5012476011941686   0.7328103513466595 Br
   0.0013146662377148   0.4987386697996835   0.2670360352041529 Br
   -0.0016222914804025   0.7328360296931418   0.5013219503650277 Br
   0.0015922146235921   0.2671579899929339   0.4983432606184724 Br
   0.4986344188408435   0.2327748504415828   0.4984800927797086 Br
   0.5012703337223881   0.7673313338811265   0.5011035192561145 Br
   0.5012295111820489   -0.0012171370853549   0.7329189516754981 Br
   0.4987558696493147   0.0012186737460138   0.2668857223824448 Br
   0.7347511890240468   -0.0014768268847141   0.5012817524765586 Br
   0.2652352960225600   0.0014518308211085   0.4984089103266144 Br
   0.4986676941286508   0.4987044893021638   0.2417740334054730 Br
   0.5020593149778552   0.5019830036576536   0.7506120792165211 I
   0.5021229370632000   0.7563765572172280   -0.0009765656628460 I
   0.4978089058711768   0.2436587365965375   0.0033536955432602 I
   0.7577350655387401   0.5021034431243413   -0.0008398694100727 I
   0.2423049675172640   0.4978188935310455   0.0034001151263027 I
