Random_composition
1.0
  11.3477549750000009  -0.0868997410000000  0.0407606630000000
  -0.0884502710000000  11.2926993660000008  0.0219821610000000
  0.0408164540000000  0.0216284050000000  11.4513763639999997
Cs Rb Ti Zr Hf Te Cl Br I
6 2 1 1 1 1 7 9 8
Direct
   0.7587539534921818   0.2379299760291001   0.2567841958287408 Cs
   0.2431609749984964   0.7618586023057173   0.7439508604197524 Cs
   0.2415405337441822   0.7650245123888519   0.2426431258025968 Cs
   0.7611158086120647   0.2343848386930769   0.7584122513922363 Cs
   0.2367443604245112   0.2488854200230080   0.7427639117926111 Cs
   0.7643814213041433   0.7554546529564189   0.2530129731637972 Cs
   0.7831144036278299   0.7437539769492292   0.7662319479448726 Rb
   0.2124777311608142   0.2385223556206967   0.2146716649458816 Rb
   -0.0028066730471322   -0.0007323732850592   -0.0006208423138253 Ti
   0.0049590513746432   0.5017904787757275   0.5017438292176111 Zr
   0.5008183157132833   0.0003922821433089   0.5003169495163186 Hf
   0.4994998990152528   0.4996867800326852   0.0011016892029779 Te
   0.2057393099823239   -0.0026684916390496   0.0047699583697653 Cl
   0.7900238738627694   0.0040284172031401   -0.0027202363462560 Cl
   0.0043775051947546   0.2099728443176119   -0.0069261619182113 Cl
   -0.0090513024852303   0.7899285951971609   0.0054233305725086 Cl
   -0.0066078029497535   0.0055999088123591   0.2074908871043466 Cl
   0.0029587880478182   -0.0064543312159656   0.7926585407253873 Cl
   0.2200570962917365   0.4930407507241321   0.5156150700152916 Cl
   0.7724873416005776   0.5149572075341174   0.4929637147635652 Br
   -0.0089408241076960   0.5049850639143415   0.7346142073704737 Br
   0.0162986563944562   0.4963748106729760   0.2697766772094537 Br
   0.0173377167860109   0.7369544693011739   0.4970951325353756 Br
   -0.0112971965692895   0.2669915590881505   0.5050241338644286 Br
   0.5269376391585411   0.2299355301710095   0.4987852124553929 Br
   0.4749377840694585   0.7706289741233713   0.5026095508441306 Br
   0.4794476399358456   0.0050179044497408   0.7281253210881659 Br
   0.5216498998838249   -0.0046664614113688   0.2722432381956857 Br
   0.7528059133097681   -0.0237722580491418   0.5216104604023776 I
   0.2490155739835191   0.0249446531468639   0.4774702576289844 I
   0.4828226626676998   0.4995823752850797   0.2590848325690364 I
   0.5154041747840239   0.4992180786366194   0.7424869833702844 I
   0.5133763096919267   0.7624071006886814   -0.0042497000220347 I
   0.4871407773280230   0.2367537872029203   0.0038405391348746 I
   0.7609102902742910   0.4918436584067285   0.0124991966947260 I
   0.2384105833614946   0.5074422127953105   -0.0113062784549567 I
