Random_composition
1.0
  11.3142560610000000  -0.1006593990000000  -0.0265173500000000
  -0.1018903790000000  11.2982296889999994  0.0166763210000000
  -0.0277240370000000  0.0156571530000000  11.5326673549999992
Cs Rb Ti Zr Hf Te Cl Br I
6 2 1 1 1 1 7 9 8
Direct
   0.7580440707299644   0.2444984876648448   0.2634060179805349 Cs
   0.2418109457827833   0.7566739185399625   0.7399054690176011 Cs
   0.2399277099480525   0.7638156552202962   0.2379913100344610 Cs
   0.7586261628845633   0.2393009570403576   0.7584824764856105 Cs
   0.2346765357204035   0.2431957086102132   0.7441597963381023 Cs
   0.7671148364764512   0.7584946621453692   0.2535842630437437 Cs
   0.7779611904758664   0.7566094968669157   0.7831069542136174 Rb
   0.2224006175904529   0.2407668232533477   0.2144605661511460 Rb
   0.0012843287586045   0.0004976773853644   -0.0021455784400040 Ti
   0.0035982923604478   0.4996490231462962   0.5021841809362237 Zr
   0.4992960660775024   -0.0009771751302075   0.5000392473579626 Hf
   0.4989326039576590   0.4999651576424352   0.0007069302163095 Te
   0.2096691428116972   0.0002755851091636   0.0141498292871202 Cl
   0.7932675889219258   -0.0001074644453413   -0.0182666201239197 Cl
   0.0060546966272873   0.2096138924700417   -0.0138237780679733 Cl
   -0.0036333038392220   0.7910575673087427   0.0104860151399485 Cl
   -0.0131799763225340   0.0130733618366600   0.2029402578200285 Cl
   0.0156736953009998   -0.0119339375486835   0.7932522769826692 Cl
   0.2182209854752767   0.4853210233571290   0.5254849625440915 Cl
   0.7712657399938022   0.5147284396197578   0.4812501718847589 Br
   -0.0180958755019718   0.5151386515128350   0.7315297726129224 Br
   0.0226457122379762   0.4843529474182349   0.2726327901659114 Br
   0.0225549530275730   0.7335540063283917   0.4865964605378404 Br
   -0.0186562689937027   0.2656404052794772   0.5151484212315071 Br
   0.5301015112676047   0.2283051994939278   0.5036111263539589 Br
   0.4668065619510033   0.7705986470313780   0.4967669270458630 Br
   0.4759501162173682   0.0004036232832907   0.7260977835480839 Br
   0.5240581315527165   -0.0012744875592790   0.2740491674103591 Br
   0.7512621332575367   -0.0303438335238504   0.5271198168914456 I
   0.2476343114860275   0.0292341836584973   0.4721292064942961 I
   0.4797550057172020   0.4951528843244100   0.2568048146878841 I
   0.5166679658161211   0.5048146820388687   0.7444047373722366 I
   0.5079493215019933   0.7629182788544634   0.0008893692595009 I
   0.4920584709008628   0.2371161520164845   -0.0001557435341435 I
   0.7609925138892679   0.4966837762921068   0.0168396989847317 I
   0.2373025314698329   0.5031898434943229   -0.0158201667883951 I
