Random_composition
1.0
  11.3069330539999999  -0.1049244790000000  -0.0449518710000000
  -0.1058880310000000  11.3145622390000007  0.0472088510000000
  -0.0461891790000000  0.0466923780000000  11.5542297359999999
Cs Rb Ti Zr Hf Te Cl Br I
6 2 1 1 1 1 7 9 8
Direct
   0.7587651360915223   0.2456742110087727   0.2667862753057888 Cs
   0.2412147326566322   0.7529027234952030   0.7336230605355086 Cs
   0.2406819172489489   0.7614495136137810   0.2376300288810522 Cs
   0.7589378511249895   0.2407563069015060   0.7604868562015378 Cs
   0.2377974019830442   0.2428376843865613   0.7412060817343166 Cs
   0.7658432129557307   0.7618955857538563   0.2550882176893561 Cs
   0.7783014884030096   0.7601339196242134   0.7881443650701369 Rb
   0.2232513689327848   0.2372832411682005   0.2100671142098998 Rb
   0.0011469495875688   0.0009352539036013   -0.0021769166190204 Ti
   0.0027033521159465   0.4994394656591859   0.5023245763699915 Zr
   0.4989017083699860   -0.0009379206318388   0.5000636974864185 Hf
   0.4995662192550005   0.4999310749841934   0.0007594850383984 Te
   0.2096111596312933   0.0035165103313530   0.0170384705769047 Cl
   0.7925724261189365   -0.0019817605164775   -0.0202816488212853 Cl
   0.0046821688482279   0.2097116841936267   -0.0191600634971129 Cl
   -0.0027117130546948   0.7917402905355233   0.0152204827181210 Cl
   -0.0158348680861786   0.0168200552107712   0.2023236676944876 Cl
   0.0180228507335775   -0.0155604255568762   0.7941433535879659 Cl
   0.2178545391595174   0.4881072255813966   0.5300370624253067 Cl
   0.7706479541836989   0.5127666827590843   0.4775787800294385 Br
   -0.0217134053267552   0.5192769396021765   0.7307505274737914 Br
   0.0255788537149854   0.4790608971838750   0.2741241930605701 Br
   0.0204236136593453   0.7328772150027268   0.4820502894319644 Br
   -0.0172682044115981   0.2659999568894975   0.5201079039347989 Br
   0.5270253281294855   0.2283011004920010   0.5069531310838691 Br
   0.4701996457027235   0.7701420751491491   0.4926930623169433 Br
   0.4747310416975301   -0.0045764763237991   0.7254231818344172 Br
   0.5237893316788516   0.0031234089496936   0.2745269853894383 Br
   0.7512812526812203   -0.0278539061442318   0.5292630135098237 I
   0.2468874541262834   0.0268923646618971   0.4707235895099950 I
   0.4776544975239665   0.4908181984360717   0.2562430008581587 I
   0.5197337855136119   0.5088463417079179   0.7448580434694211 I
   0.5059170287503697   0.7626710898541070   0.0026463980610399 I
   0.4940587373468124   0.2372226228828391   -0.0025973295940589 I
   0.7620669205850662   0.4987146369272279   0.0197393157425869 I
   0.2376777253403441   0.5010611639990827   -0.0184080175177198 I
