Random_composition
1.0
  11.2530424950000008  -0.0300716260000000  0.0195908690000000
  -0.0302623020000000  11.3387003869999994  0.0294854590000000
  0.0193945200000000  0.0293323440000000  11.4364477450000006
Cs Rb Ti Zr Hf Te Cl Br I
6 2 1 1 1 1 7 9 8
Direct
   0.7653869946306044   0.2416209188336391   0.2485047073467895 Cs
   0.2353030643460605   0.7602733268798554   0.7529053944435774 Cs
   0.2374655449038941   0.7605051330236325   0.2451603909898087 Cs
   0.7633465166480610   0.2413903139070836   0.7535240020621486 Cs
   0.2366935562066120   0.2406401800412090   0.7538046580201337 Cs
   0.7640139969365339   0.7574321410340399   0.2474753639100467 Cs
   0.7642005652958983   0.7550097615771961   0.7521143828271807 Rb
   0.2356638276995778   0.2417799339415409   0.2450047611785107 Rb
   -0.0003341516104917   -0.0000237503078407   -0.0000255982799355 Ti
   0.0044255110686408   0.5003168051102017   0.5001554116529833 Zr
   0.4997299065070036   -0.0000439011222455   0.4999761533305531 Hf
   0.4989065336378954   0.4999091383327684   0.0001019492311089 Te
   0.2100153628460944   0.0002625048117223   -0.0007145683448728 Cl
   0.7899996182116016   -0.0001576509036185   0.0008226216381686 Cl
   0.0011966546518591   0.2090333475390821   -0.0010402607495164 Cl
   -0.0011528481555223   0.7910063486459790   0.0010684611435219 Cl
   0.0007438615760497   0.0009894024683483   0.2077512447130404 Cl
   -0.0007005543076073   -0.0009145839453644   0.7922696709173911 Cl
   0.2222832573502968   0.5018562120255405   0.5013985063297102 Cl
   0.7689417447911447   0.4997107748340363   0.4995363673080760 Br
   0.0011097178831755   0.4998205191046725   0.7325789448827585 Br
   0.0047852110061259   0.4999868102066484   0.2677338262052412 Br
   0.0023805657798156   0.7344501202525531   0.5005302250641648 Br
   0.0033423246374705   0.2661202059347365   0.4992177616542514 Br
   0.5044393587631333   0.2297130905693852   0.4998374080963616 Br
   0.4938057149233457   0.7701833258959150   0.5001838713905038 Br
   0.4954010163345889   -0.0007079913211519   0.7290660286259711 Br
   0.5049056511996760   0.0006302903206727   0.2709180284136015 Br
   0.7562227665428279   -0.0052472661120815   0.5055179532843352 I
   0.2433383439858185   0.0051316103828634   0.4943957781790003 I
   0.4965900471693094   0.4986417385726614   0.2588949606485373 I
   0.4993158933410206   0.5009701637531522   0.7413199291910348 I
   0.5020086351774564   0.7618290671463455   -0.0025679009590912 I
   0.4976883372723613   0.2379783302597690   0.0027720978916523 I
   0.7629595519282518   0.5022400875527286   -0.0019241831584845 I
   0.2355777906982862   0.4976649177818488   0.0017322640977210 I
