Random_composition
1.0
  11.2666416310000006  -0.0657502230000000  0.0314956620000000
  -0.0662908690000000  11.3295003249999997  0.0378457290000000
  0.0314845810000000  0.0377413580000000  11.4248310160000006
Cs Rb Ti Zr Hf Te Cl Br I
6 2 1 1 1 1 7 9 8
Direct
   0.7636235830272330   0.2414909757508184   0.2526759269932938 Cs
   0.2366114081968837   0.7616277401344128   0.7499868836580853 Cs
   0.2384951231185977   0.7619092138441820   0.2448354312345181 Cs
   0.7617133979406326   0.2415564344150571   0.7524669240956861 Cs
   0.2360539171570907   0.2400684374487530   0.7520968799059483 Cs
   0.7639218900344826   0.7564348981996493   0.2506165684362247 Cs
   0.7696957718816361   0.7515018437476212   0.7537430334807251 Rb
   0.2289834826031615   0.2399510233817015   0.2379489804634299 Rb
   -0.0009622260388068   0.0000048617585895   0.0000437749975109 Ti
   0.0055528799328382   0.5007889592830411   0.5004172383052856 Zr
   0.4999519129826413   -0.0001261399279563   0.5000098863072737 Hf
   0.4988504418878108   0.4998501049032981   0.0002014194765539 Te
   0.2095011073143254   0.0004315314550065   -0.0014385077262047 Cl
   0.7903593763443423   0.0001850648038385   0.0021094495207818 Cl
   0.0028164947815648   0.2093380383481987   -0.0023896421748513 Cl
   -0.0028250365155190   0.7910418883330635   0.0027800340694097 Cl
   0.0012422558963005   0.0023968086185724   0.2084459859426886 Cl
   -0.0013815489410513   -0.0019815453994750   0.7919450618707229 Cl
   0.2226307385572242   0.5031401767403455   0.5031939975898602 Cl
   0.7701444946782093   0.5002221872390323   0.4989152581761406 Br
   -0.0008889419833895   0.5000415308879016   0.7331708932778773 Br
   0.0068691847279074   0.5005969724339914   0.2678252473789269 Br
   0.0035066498595074   0.7354679753243397   0.5001382712844292 Br
   0.0025313670985001   0.2661629745979395   0.5000596624238945 Br
   0.5108951786888494   0.2297548994359482   0.4995385724726689 Br
   0.4879998778098706   0.7699486256863257   0.5005886604144423 Br
   0.4908338245356163   -0.0007960115909033   0.7291959922852315 Br
   0.5094557479352770   0.0004806803617812   0.2708159234851974 Br
   0.7558797777009746   -0.0099959599136535   0.5094807408746082 I
   0.2441044272311127   0.0099245892189307   0.4904244236353622 I
   0.4946301480595036   0.4988421910837374   0.2591130009291497 I
   0.5006525192681542   0.5004824328048662   0.7411532374609336 I
   0.5039848118787211   0.7616897948338682   -0.0039125340919978 I
   0.4961410721605984   0.2378729242317473   0.0039747838892675 I
   0.7626693691176589   0.5013466443877017   -0.0005640876348205 I
   0.2357537974521793   0.4983481932720946   0.0003933911498315 I
