Random_composition
1.0
  11.2687795820000005  -0.0645937740000000  0.0309158120000000
  -0.0651312210000000  11.3308711239999997  0.0366746870000000
  0.0308981600000000  0.0365631430000000  11.4253337310000003
Cs Rb Ti Zr Hf Te Cl Br I
6 2 1 1 1 1 7 9 8
Direct
   0.7637870045220602   0.2414735545373387   0.2524443491486768 Cs
   0.2364883285018360   0.7615873241922835   0.7501503235133746 Cs
   0.2384109665055163   0.7618235511081752   0.2449293611005730 Cs
   0.7618379054965999   0.2415707305878691   0.7524837203030250 Cs
   0.2360915238304474   0.2400405204112586   0.7521738822003661 Cs
   0.7639296991947456   0.7565435056131596   0.2504746525699743 Cs
   0.7692424985346243   0.7518148457545356   0.7535224678841280 Rb
   0.2295673777098032   0.2400974310953473   0.2386439909913967 Rb
   -0.0009939830638092   0.0000004067231575   0.0000324467438602 Ti
   0.0054587670643165   0.5007599428706055   0.5004007898784038 Zr
   0.4999203267365374   -0.0001385369003429   0.4999976169152211 Hf
   0.4988322387354136   0.4998578244431652   0.0001878340783989 Te
   0.2096102942427806   0.0004360962995285   -0.0014175748846107 Cl
   0.7903354225315745   0.0001259174679605   0.0020237063722360 Cl
   0.0027051605827469   0.2093060033024313   -0.0023141437280388 Cl
   -0.0026986803276219   0.7910414091979519   0.0026644504680581 Cl
   0.0012162272339783   0.0022554355129684   0.2084752829139042 Cl
   -0.0013274858602146   -0.0018682733979777   0.7918744232474609 Cl
   0.2226658818189950   0.5030611460233014   0.5030151966408765 Cl
   0.7700911278544263   0.5001379791649899   0.4989753242968702 Br
   -0.0007691947869943   0.4999603679514147   0.7330829967398528 Br
   0.0067069231209734   0.5006057823532590   0.2678550282819303 Br
   0.0033464127921333   0.7354853630688342   0.5001291850183429 Br
   0.0026354342219631   0.2660446764898877   0.5000196539267963 Br
   0.5103657076713580   0.2297362921665017   0.4995229248872991 Br
   0.4884515820140917   0.7699909195895410   0.5005875610646143 Br
   0.4911609608172082   -0.0008687229682413   0.7291311935697351 Br
   0.5091241158361904   0.0005711780581406   0.2708821588621338 Br
   0.7559480252225115   -0.0096334616771793   0.5091205818679456 I
   0.2440093603956088   0.0095479910091078   0.4907791942822533 I
   0.4948323523992577   0.4988216465570242   0.2589847962372315 I
   0.5004957234563783   0.5005277658861391   0.7412737578228151 I
   0.5038116297315353   0.7615940040599009   -0.0038403226007410 I
   0.4963039002610705   0.2379865425905886   0.0039192098033377 I
   0.7626898376774586   0.5014568057665963   -0.0007500828626304 I
   0.2357153247299262   0.4982481054470332   0.0005653730710720 I
