Random_composition
1.0
  11.2369196450000004  -0.0238980990000000  0.0147984360000000
  -0.0240194200000000  11.3332177739999995  0.0243268650000000
  0.0145075670000000  0.0241227820000000  11.4330664530000004
Cs Rb Ti Zr Hf Te Cl Br I
6 2 1 1 1 1 7 9 8
Direct
   0.7656700928734254   0.2416759377803202   0.2475678833720646 Cs
   0.2350857738003593   0.7598628785006017   0.7535044121341213 Cs
   0.2371425152037754   0.7601506441144110   0.2451816921637238 Cs
   0.7637724490725513   0.2412879337059743   0.7538106787652765 Cs
   0.2366889746837000   0.2408693472600813   0.7541273211965299 Cs
   0.7641505075669937   0.7576417175480730   0.2467859984403295 Cs
   0.7631833532776044   0.7556114304059067   0.7519753740672422 Rb
   0.2368261199687843   0.2421556749804135   0.2461032188497401 Rb
   -0.0003034952835159   -0.0000349804771752   -0.0000336443228688 Ti
   0.0043694771651081   0.5002066291704619   0.5000982809761932 Zr
   0.4996685958393662   -0.0000299699775874   0.4999749138901344 Hf
   0.4989202366166223   0.4999181582091698   0.0000783096352323 Te
   0.2102714941778757   0.0003102194543928   -0.0004433837533301 Cl
   0.7898229022200959   -0.0002732051319296   0.0004791805048143 Cl
   0.0009679867278645   0.2092760097459112   -0.0007238087839765 Cl
   -0.0009128373654098   0.7907261026342418   0.0007073886474655 Cl
   0.0006992798830844   0.0007618514727140   0.2082049577931791 Cl
   -0.0006162381823092   -0.0007415962038834   0.7917803327117632 Cl
   0.2223391118116124   0.5014066280585086   0.5008946725775385 Cl
   0.7690269995472262   0.4998642239410670   0.4998667240468268 Br
   0.0011448644400744   0.4998439267643995   0.7328045766646422 Br
   0.0043754222541096   0.4998240064301278   0.2673924893232329 Br
   0.0019155268304013   0.7347004293259276   0.5005978683468026 Br
   0.0033604863415193   0.2657013307412873   0.4990827800320738 Br
   0.5030304646817839   0.2299141572250658   0.4997043329262588 Br
   0.4951150173021397   0.7700367006259096   0.5003023919048188 Br
   0.4964020380482451   -0.0008029989719984   0.7293365778057950 Br
   0.5038508872815423   0.0007634514746354   0.2706452582279995 Br
   0.7565122855269938   -0.0044911817338274   0.5048649092926901 I
   0.2431550014887330   0.0043905010677495   0.4950688341062187 I
   0.4968093724732237   0.4985278928349231   0.2589926674284787 I
   0.4992519280454848   0.5011366707688860   0.7412141618345055 I
   0.5016243339766777   0.7618272277294661   -0.0023218725994311 I
   0.4979131966701968   0.2380284372257109   0.0025313574346781 I
   0.7633083492863153   0.5022829070848231   -0.0020707251484073 I
   0.2354565208127078   0.4976698547053008   0.0019118986551722 I
