Random_composition
1.0
  11.0292365609999994  -0.0017636090000000  0.0081476750000000
  -0.0017628870000000  10.9127141509999994  0.0164177350000000
  0.0081190850000000  0.0164112350000000  10.9284919439999992
Cs Rb Ti Zr Hf Te Cl Br I
6 2 1 1 1 1 7 9 8
Direct
   0.7532043622276532   0.2475855551864657   0.2497049323544899 Cs
   0.2468709605912930   0.7518827118197251   0.7497470288232138 Cs
   0.2468886816536460   0.7518897999586166   0.2502526531373160 Cs
   0.7531876418369921   0.2475722271909117   0.7503019390669660 Cs
   0.2468874550890545   0.2481235268419255   0.7497479850769245 Cs
   0.7531898570172852   0.7524168936990037   0.2496977887383300 Cs
   0.7520351193628151   0.7516217093062292   0.7503050538200782 Rb
   0.2480215298829004   0.2487523545350582   0.2500770705554293 Rb
   0.0000299213976882   -0.0000027414717898   -0.0000018482679193 Ti
   0.0072010302606874   0.5000082387532423   0.5000060716139467 Zr
   0.4999666496542031   -0.0000031039562799   0.5000000469586942 Hf
   0.4998407136232240   0.4999994969399591   -0.0000037881646869 Te
   0.2186332626462908   0.0003061014212801   0.0003160199739770 Cl
   0.7813461974868348   -0.0003094343209608   -0.0003194470643174 Cl
   0.0002894830492923   0.2185089398178818   0.0002992379491967 Cl
   -0.0003019147514625   0.7814925101933097   -0.0002990236027360 Cl
   0.0003046047117409   0.0003253777310427   0.2181300209058783 Cl
   -0.0003135896536651   -0.0003245784844789   0.7818716367871192 Cl
   0.2275183415607628   0.4997125409212568   0.4997269645627332 Cl
   0.7633882103642033   0.5004670167885200   0.5004390042221590 Br
   0.0003546723584328   0.5004357076480138   0.7390544945084137 Br
   0.0012441362573108   0.4995337968890864   0.2609590293239870 Br
   0.0002982589575604   0.7390624524311361   0.5004646447484707 Br
   0.0012271489881827   0.2609538421737426   0.4995040265878452 Br
   0.4993812387312280   0.2382809374898080   0.4995940152269615 Br
   0.5001316320783984   0.7617298315462890   0.5003965084579728 Br
   0.5003802776309877   -0.0004086065614943   0.7386087498511039 Br
   0.4996309980004269   0.0004088272649741   0.2613903612345171 Br
   0.7596474160199780   -0.0009384978938950   0.5009543929576785 I
   0.2403865243347778   0.0009368854285888   0.4990474491023378 I
   0.4986575862937305   0.4991129888240878   0.2731093009501351 I
   0.5004245806670023   0.5008655864536025   0.7269154486632707 I
   0.5009042584491279   0.7738952912340824   -0.0008955318778966 I
   0.4990863413028706   0.2261046569376175   0.0008959589671138 I
   0.7726591814596266   0.5009732891371634   -0.0009525763163642 I
   0.2273957929802828   0.4990285022391314   0.0009529526423761 I
