Random_composition
1.0
  11.2622621679999995  -0.0583129750000000  0.0288423470000000
  -0.0587781940000000  11.3309225710000003  0.0343403680000000
  0.0287804740000000  0.0342094520000000  11.4269522220000006
Cs Rb Ti Zr Hf Te Cl Br I
6 2 1 1 1 1 7 9 8
Direct
   0.7642126236339808   0.2414866330004517   0.2516021349024112 Cs
   0.2361722575117455   0.7613562551325231   0.7507612543701698 Cs
   0.2381838673116378   0.7615413377192554   0.2450573481066493 Cs
   0.7621929917259155   0.2415706032783209   0.7526557191058073 Cs
   0.2362397887056251   0.2400927768058282   0.7525166158631454 Cs
   0.7639407673598416   0.7567839170026193   0.2498634685456209 Cs
   0.7679784910247468   0.7526343364479624   0.7530585400736147 Rb
   0.2311381484516057   0.2405042825332379   0.2403706932861326 Rb
   -0.0005585320346185   -0.0000011373695732   0.0000092893039527 Ti
   0.0051416855661283   0.5006453305072167   0.5003398321580588 Zr
   0.4997268919507437   -0.0000780213863784   0.4999967858323863 Hf
   0.4987245676862341   0.4998645925083509   0.0001496531070787 Te
   0.2096550722503815   0.0003944806906826   -0.0012926010951376 Cl
   0.7900483551088068   0.0000370728491770   0.0017539128291184 Cl
   0.0023228518026641   0.2092888291706373   -0.0020481447244237 Cl
   -0.0023178834827592   0.7909687796061624   0.0023046122640495 Cl
   0.0010905430408077   0.0018941579236001   0.2084522148883325 Cl
   -0.0011766507995949   -0.0015881920525545   0.7918006744659860 Cl
   0.2224382925395680   0.5027946679621883   0.5025975511297825 Cl
   0.7700427496919680   0.4999742610021015   0.4990972876140209 Br
   -0.0003072572163669   0.4998457302229222   0.7328037969370770 Br
   0.0062294098878717   0.5005246182518256   0.2679832793663869 Br
   0.0030535888251924   0.7352320409181572   0.5001756966723920 Br
   0.0028628698683865   0.2660592836159431   0.4998560196486881 Br
   0.5088870289539145   0.2294592028200178   0.4995770245079516 Br
   0.4897621707701578   0.7702627507780988   0.5005020491985357 Br
   0.4921665861431992   -0.0009006674155929   0.7288947680865825 Br
   0.5081382558931304   0.0006563407639634   0.2710977958892692 Br
   0.7559318017450353   -0.0085529933337277   0.5081618223995682 I
   0.2440552192939320   0.0084423492070265   0.4917348783940168 I
   0.4953381477441972   0.4987793493662454   0.2588306104192957 I
   0.5001426859374977   0.5006371816155171   0.7414227767348337 I
   0.5033601411068813   0.7615297207061358   -0.0035625683836660 I
   0.4967074942466214   0.2381137658333426   0.0036787478351334 I
   0.7626843849868956   0.5016990476774100   -0.0011303221852016 I
   0.2357916874499308   0.4980492998206502   0.0009255327131331 I
