Random_composition
1.0
  11.3104832819999999  -0.1035104410000000  -0.0427138570000000
  -0.1041661810000000  11.3449634659999994  0.0586038610000000
  -0.0437864050000000  0.0584566950000000  11.5576915240000009
Cs Rb Ti Zr Hf Te Cl Br I
6 2 1 1 1 1 7 9 8
Direct
   0.7586932239751447   0.2468054013768900   0.2683081615390069 Cs
   0.2419058962865274   0.7509710651438363   0.7316610685087817 Cs
   0.2402462716030337   0.7604620568034011   0.2369916022182765 Cs
   0.7601588460212876   0.2417407928008645   0.7614853151385169 Cs
   0.2410695326771403   0.2415247023994948   0.7395951615171643 Cs
   0.7637298430675418   0.7639338359414967   0.2559596238423284 Cs
   0.7772429917261132   0.7607690568316443   0.7885428524388414 Rb
   0.2242323044232500   0.2367213357853120   0.2091373556136640 Rb
   0.0005504159015726   0.0005755650298952   -0.0019294700763202 Ti
   0.0027380554057692   0.4996811170576289   0.5024129341158465 Zr
   0.4989064987996100   -0.0006240831956688   0.4998953971503270 Hf
   0.4995583873355950   0.4998170149898440   0.0007481475543752 Te
   0.2087866345839279   0.0012853075837259   0.0181301567039600 Cl
   0.7920812309700859   -0.0012084314538236   -0.0210704997891075 Cl
   0.0052360514294626   0.2085434775993008   -0.0214885299980501 Cl
   -0.0039780612153611   0.7921963503165025   0.0186390436547054 Cl
   -0.0169279631997920   0.0198068671810660   0.2021940261735487 Cl
   0.0180862021264357   -0.0185434188415818   0.7948879089145309 Cl
   0.2176294113644051   0.4903312312958330   0.5323087638615188 Cl
   0.7708488181566209   0.5112448696076446   0.4749932104964105 Br
   -0.0244391126167847   0.5212315451617668   0.7300696607705208 Br
   0.0286057980360380   0.4774912823877884   0.2749016985465719 Br
   0.0194229280933352   0.7324185786622671   0.4791317591489785 Br
   -0.0164774305158176   0.2668822183911843   0.5230435372328640 Br
   0.5250514835203269   0.2281008717049114   0.5089623105090023 Br
   0.4721133580312701   0.7708662301008501   0.4906100870826732 Br
   0.4738180380556262   -0.0072907302430555   0.7251210887105245 Br
   0.5244939149900681   0.0062526069321864   0.2744766742205634 Br
   0.7512440495289459   -0.0253352731510380   0.5287563924889038 I
   0.2469067153706473   0.0247080114902896   0.4707063120662778 I
   0.4749600557121580   0.4883518139692582   0.2557420803226699 I
   0.5233110414111048   0.5107141648171765   0.7452459509909721 I
   0.5058274435949898   0.7616672901225630   0.0046332087149588 I
   0.4949551535853025   0.2379471835067404   -0.0044319559757715 I
   0.7617383342872964   0.4992974294128297   0.0230388589778734 I
   0.2376737084458889   0.5006612209792475   -0.0214098740473652 I
