Random_composition
1.0
  11.2560216850000003  -0.0085989000000000  0.0163374350000000
  -0.0086167040000000  11.3420325930000008  0.0331179710000000
  0.0161567280000000  0.0330469040000000  11.4252267120000006
Cs Rb Ti Zr Hf Te Cl Br I
6 2 1 1 1 1 7 9 8
Direct
   0.7659670305732500   0.2412557311478177   0.2474091967163521 Cs
   0.2346032788943009   0.7594174060296648   0.7528801867463978 Cs
   0.2357245459434058   0.7596456732733835   0.2466490174076995 Cs
   0.7649147844527916   0.2408967125041493   0.7531435008683053 Cs
   0.2356027999877963   0.2409481468795586   0.7529960986938287 Cs
   0.7650004875564002   0.7585086057073240   0.2471891070035612 Cs
   0.7617918310979350   0.7563666626621125   0.7515146230978788 Rb
   0.2383104144961389   0.2427561607698334   0.2478574035320114 Rb
   -0.0000204167504034   -0.0000255104327237   -0.0000252792873329 Ti
   0.0040476054264584   0.5001034315482985   0.5000584763509087 Zr
   0.4997246921137990   0.0000047814635506   0.4999818179513710 Hf
   0.4991503272708538   0.4999518377508366   0.0000636988243035 Te
   0.2098551755943737   0.0002379946946030   -0.0001458506893636 Cl
   0.7901740106909321   -0.0002529975009863   0.0001250707982930 Cl
   0.0004165718603046   0.2089485228397154   -0.0005257450890913 Cl
   -0.0003679780872366   0.7910222838647686   0.0004935533362127 Cl
   0.0001693248680067   0.0000035731528427   0.2082170599583637 Cl
   -0.0001023672225005   -0.0000234241433201   0.7917473041193113 Cl
   0.2217924831567530   0.5005598314012951   0.5002359338515352 Cl
   0.7690423428278204   0.5002911748278539   0.5003224300213166 Br
   0.0016886328944194   0.4997058504529545   0.7327305951323705 Br
   0.0037959736221829   0.4998960019368601   0.2673743391913644 Br
   0.0018592251141321   0.7343955250171520   0.5001378160250287 Br
   0.0032693712562469   0.2657770313293165   0.4994828316929401 Br
   0.5009240645192741   0.2298295855380801   0.4993734338868486 Br
   0.4974038287905145   0.7701665344468627   0.5005972737782293 Br
   0.4981518400477872   -0.0008993163675007   0.7293764465499797 Br
   0.5020677764018472   0.0009155795861873   0.2706061994333979 Br
   0.7564641534362871   -0.0029562094983368   0.5030481551571543 I
   0.2431788301155466   0.0028909411979170   0.4969276744066465 I
   0.4971131989318756   0.4982186781156952   0.2590905658425340 I
   0.4997944697195225   0.5015006159566593   0.7411087911794834 I
   0.5013135964718557   0.7616544680890105   -0.0020896415874262 I
   0.4981678297344275   0.2382704908181415   0.0021794036026785 I
   0.7629986137504274   0.5020403898216896   -0.0020430228578016 I
   0.2360105623900667   0.4979774259689163   0.0019135017078290 I
