Random_composition
1.0
  11.3020545840000004  -0.1054228390000000  -0.0039841000000000
  -0.1063067930000000  11.3234505169999995  -0.0079085320000000
  -0.0050662640000000  -0.0091275050000000  11.5063563379999998
Cs Rb Ti Zr Hf Te Cl Br I
6 2 1 1 1 1 7 9 8
Direct
   0.7591744671664352   0.2410178269107636   0.2584615526263334 Cs
   0.2416560414052566   0.7615921856049894   0.7455884040087487 Cs
   0.2401887184281136   0.7670946994960030   0.2385640986787145 Cs
   0.7603027927331653   0.2357933682099657   0.7593814796868327 Cs
   0.2353364750920206   0.2465697635389200   0.7428839641169467 Cs
   0.7679051210805136   0.7567781305061153   0.2536262852574021 Cs
   0.7781881215244103   0.7507108634181360   0.7755146058454231 Rb
   0.2201055599975011   0.2441850814899545   0.2184095463646393 Rb
   -0.0007828753173884   -0.0007391466291363   -0.0018797405523494 Ti
   0.0044049509573994   0.5002537722055479   0.5022679337371585 Zr
   0.4999323438846409   0.0000101738040343   0.4996891884812342 Hf
   0.4991604066646092   0.4995263692576885   0.0010098092663737 Te
   0.2081209852049995   -0.0037812788438862   0.0111937494954032 Cl
   0.7910515736999475   0.0024414923719571   -0.0141095111289496 Cl
   0.0075898098356063   0.2085686493736204   -0.0102282847970031 Cl
   -0.0084767712702666   0.7899695494692455   0.0070937944870542 Cl
   -0.0120718584987174   0.0092881127664539   0.2044518082650039 Cl
   0.0112610903690708   -0.0107413109496872   0.7925627930704168 Cl
   0.2193602983764866   0.4844152110143390   0.5221674690118879 Cl
   0.7718628857019481   0.5172802119738675   0.4847882285385456 Br
   -0.0150414473486324   0.5107581766671091   0.7330208775908720 Br
   0.0208653630550220   0.4893965354741457   0.2714615683801565 Br
   0.0243604452661404   0.7339851091156668   0.4925679018348640 Br
   -0.0185533857748564   0.2664556077066990   0.5097602735268134 Br
   0.5310725072570612   0.2286034932947365   0.5010320899743889 Br
   0.4672828307081700   0.7718033467489129   0.4990107523464128 Br
   0.4774239376255095   0.0041490845622287   0.7264380375804353 Br
   0.5234949707092736   -0.0038070740338640   0.2730712882208655 Br
   0.7522176057480437   -0.0290305252608773   0.5251564564682490 I
   0.2478753935730142   0.0298419211181915   0.4734907738039530 I
   0.4795043611210494   0.4984490826856521   0.2577716443606575 I
   0.5168505164260676   0.5009521261501022   0.7437698545628529 I
   0.5113744976323094   0.7619554763878484   -0.0016892127295071 I
   0.4880314917299852   0.2372017264207358   0.0024482366861021 I
   0.7616408323265251   0.4939163842425379   0.0157104996108264 I
   0.2373290785254921   0.5051364817212796   -0.0144563199940929 I
