Random_composition
1.0
  11.3287546930000005  -0.0948746450000000  0.0386782990000000
  -0.0959197980000000  11.3365328680000008  0.0270602020000000
  0.0387046830000000  0.0268186330000000  11.4416791720000006
Cs Rb Ti Zr Hf Te Cl Br I
6 2 1 1 1 1 7 9 8
Direct
   0.7598451857405357   0.2411085661021141   0.2559734449972011 Cs
   0.2401515737896434   0.7614666256086632   0.7469756647113241 Cs
   0.2406224667443324   0.7636282401448101   0.2424556008040042 Cs
   0.7596923920843485   0.2394456568946735   0.7544003649211344 Cs
   0.2360141821852693   0.2431338053504908   0.7493814495332176 Cs
   0.7635855434870481   0.7546452518151809   0.2522204052134797 Cs
   0.7796219538524920   0.7446822282862364   0.7607322462544830 Rb
   0.2158747656356979   0.2372270197138037   0.2207098173469808 Rb
   -0.0019800341093979   -0.0001633455124714   0.0001460453914812 Ti
   0.0060701587455646   0.5017521781025066   0.5009892005466614 Zr
   0.5003797634891319   -0.0000115366225085   0.5001797715218748 Hf
   0.4990078841063524   0.4997343450560736   0.0006848917378141 Te
   0.2076732544623474   -0.0003558983058909   -0.0000902680047939 Cl
   0.7909480763571931   0.0024112662911715   0.0024430176756460 Cl
   0.0046203242276139   0.2097404141017109   -0.0045023395150927 Cl
   -0.0059521516296652   0.7911360145803081   0.0050658577176549 Cl
   -0.0002188469737636   0.0049818077423641   0.2081690650559043 Cl
   -0.0011703772707874   -0.0046134648776567   0.7930925149256169 Cl
   0.2214812109267838   0.5015827203492472   0.5091219974096064 Cl
   0.7719724381008037   0.5055536536681096   0.4964831603678251 Br
   -0.0038097312300827   0.5023657371161847   0.7339248994281610 Br
   0.0108631019149894   0.4994492890773867   0.2687441754676805 Br
   0.0089723292519716   0.7361597765693958   0.4993447419230103 Br
   -0.0022234448152390   0.2676832007790025   0.5018767220488786 Br
   0.5217924816200828   0.2289801372715585   0.4998026617986164 Br
   0.4791612146173877   0.7706829103784792   0.5010734821221952 Br
   0.4834079199272887   0.0023767831005416   0.7285485078189076 Br
   0.5173518168069292   -0.0026447210837265   0.2716595380540450 Br
   0.7535891048459760   -0.0186785565246140   0.5170497976616617 I
   0.2475393930582374   0.0190995329085609   0.4826021318300256 I
   0.4887452417597083   0.4993786892383410   0.2590216726624980 I
   0.5068700769819980   0.4994530025656537   0.7417879579458464 I
   0.5090164306755083   0.7613974233296557   -0.0046296926336469 I
   0.4917288412215226   0.2377983541135820   0.0042411513751829 I
   0.7613710750617675   0.4968200052647326   0.0059097455183132 I
   0.2373848856433391   0.5025956106649626   -0.0055876398361488 I
