Random_composition
1.0
  11.3168787399999999  -0.0985834800000000  -0.0319817120000000
  -0.0997841420000000  11.3042456169999994  0.0213165480000000
  -0.0332293510000000  0.0203299350000000  11.5442357030000000
Cs Rb Ti Zr Hf Te Cl Br I
6 2 1 1 1 1 7 9 8
Direct
   0.7581027957676949   0.2446441282993292   0.2640980776392614 Cs
   0.2416841915720605   0.7561403551347544   0.7388008519107456 Cs
   0.2400997630447245   0.7633438543234825   0.2377504250756524 Cs
   0.7584103277268018   0.2396391405179632   0.7588329974206223 Cs
   0.2348895916970576   0.2429992002581540   0.7439073913680978 Cs
   0.7669893289225586   0.7590673276108260   0.2537620516479182 Cs
   0.7780985550895034   0.7574336253408397   0.7841601026313606 Rb
   0.2225182492836249   0.2400321521489202   0.2136858533674473 Rb
   0.0013973391048179   0.0006752279400747   -0.0022227287186549 Ti
   0.0033603606275411   0.4996072196671172   0.5021439026318731 Zr
   0.4992211179803473   -0.0009254539081822   0.5000760398544178 Hf
   0.4989884389186777   0.4999695127743443   0.0006809355447579 Te
   0.2097528920879044   0.0008138820558335   0.0146506803725483 Cl
   0.7932511009795125   -0.0002041110509637   -0.0187518798447193 Cl
   0.0055234120548799   0.2098422988890022   -0.0144796476409142 Cl
   -0.0029017554848628   0.7910567546192255   0.0110223492386037 Cl
   -0.0134826248181933   0.0137087197705710   0.2028585209313144 Cl
   0.0162246918480294   -0.0125244387269320   0.7933531596934745 Cl
   0.2181376411142623   0.4857086295012371   0.5260775109019531 Cl
   0.7712569040957505   0.5143526408678283   0.4807985592311166 Br
   -0.0186216366024877   0.5157418202755244   0.7315322408671111 Br
   0.0229999810941641   0.4835830840440749   0.2727731257193602 Br
   0.0221714896272150   0.7333472768203471   0.4858846262391546 Br
   -0.0184596114481109   0.2656843848032091   0.5159212189797687 Br
   0.5298202972818231   0.2283869465600250   0.5041525735080100 Br
   0.4670883959425005   0.7702749816986663   0.4962934602459751 Br
   0.4756741888358532   -0.0002374018777534   0.7258884997751770 Br
   0.5240652686747078   -0.0007051773979180   0.2742594328368599 Br
   0.7509845159051595   -0.0302740365553732   0.5272919979341421 I
   0.2477905535403490   0.0288831966132046   0.4719791951802155 I
   0.4796755034414786   0.4945841477538111   0.2566361336774317 I
   0.5168352265070634   0.5054292771746702   0.7444551106735233 I
   0.5074332617226032   0.7628452038625093   0.0012289560258408 I
   0.4925288932339742   0.2371901984638986   -0.0005434884731232 I
   0.7613331255568089   0.4970333426653228   0.0171118908807238 I
   0.2371619314855413   0.5028532750190208   -0.0160689937520557 I
