Random_composition
1.0
  11.3014737860000007  -0.0021412500000000  0.0116787520000000
  -0.0021298920000000  11.3421596480000009  0.0268456170000000
  0.0115405170000000  0.0268058430000000  11.4052667949999993
Cs Rb Ti Zr Hf Te Cl Br I
6 2 1 1 1 1 7 9 8
Direct
   0.7610777056735547   0.2434568211495202   0.2485847867135398 Cs
   0.2392220976977063   0.7565363499729825   0.7511859786661058 Cs
   0.2396813061637914   0.7566520063836010   0.2486533706290753 Cs
   0.7606551182084259   0.2432720583904871   0.7516357015662921 Cs
   0.2396430524029461   0.2436252625971611   0.7511986481094197 Cs
   0.7606833727724821   0.7564641504703065   0.2485148722626712 Cs
   0.7578287384413268   0.7547005489600052   0.7509030045638841 Rb
   0.2423089050676301   0.2451272503237048   0.2490664701817587 Rb
   0.0000371742465811   -0.0000131868772219   -0.0000131588450888 Ti
   0.0039945633093465   0.5000445278324058   0.5000285786483110 Zr
   0.4998454117489520   0.0000068343432906   0.4999946383039156 Hf
   0.4994458782466522   0.4999831304812551   0.0000354870982371 Te
   0.2092460817544732   0.0002085091615387   0.0001157946912478 Cl
   0.7907943061681746   -0.0002286139773315   -0.0001393525754409 Cl
   0.0002412508913636   0.2087860485533417   -0.0001558760382980 Cl
   -0.0001961218976540   0.7911972736765779   0.0001413479848753 Cl
   0.0001467881753011   0.0000143816179814   0.2080589557671891 Cl
   -0.0001158473428939   -0.0000263076639199   0.7919220322980491 Cl
   0.2213911047539553   0.4999553908517980   0.4998982417274246 Cl
   0.7692386378764219   0.5005793721998697   0.5004870112392006 Br
   0.0017563436804905   0.5002532312129319   0.7327412880085611 Br
   0.0031711823618207   0.4995328444740921   0.2673118263627587 Br
   0.0016579871431600   0.7338178338577902   0.5004329093613124 Br
   0.0029672482058273   0.2662544713041192   0.4993550508769939 Br
   0.4996292816817320   0.2304413348569226   0.4994217773325453 Br
   0.4990723061109841   0.7695766432562635   0.5005434595350786 Br
   0.4996962465425762   -0.0006734335547523   0.7299962727615074 Br
   0.5004016001451338   0.0006765958684688   0.2699943653688071 Br
   0.7548395793956193   -0.0021200431221195   0.5022102010037315 I
   0.2449733325348568   0.0020869817124620   0.4977895820358995 I
   0.4971561456718713   0.4982014400595278   0.2594309598191855 I
   0.5003701495877055   0.5016175083615835   0.7407174440941952 I
   0.5016021363614802   0.7612699309508308   -0.0019039316083932 I
   0.4980524245505176   0.2387036908668388   0.0019057179266255 I
   0.7618256187727729   0.5020705611889719   -0.0019846590937681 I
   0.2376582444249831   0.4979481507085337   0.0019198781892963 I
