Random_composition
1.0
  11.3159529489999997  -0.0981703880000000  -0.0343750990000000
  -0.0993703380000000  11.3032617870000003  0.0234741900000000
  -0.0356450230000000  0.0225068340000000  11.5454282359999993
Cs Rb Ti Zr Hf Te Cl Br I
6 2 1 1 1 1 7 9 8
Direct
   0.7581459935060237   0.2447209991859291   0.2644515780567659 Cs
   0.2416104861742172   0.7558512105395556   0.7382153537517119 Cs
   0.2401883610772145   0.7631010487034863   0.2376372070053905 Cs
   0.7583183661985330   0.2398061098545642   0.7590214789435815 Cs
   0.2350239495468514   0.2429213013260429   0.7437443129199725 Cs
   0.7669241458582370   0.7593680291877665   0.2538613106531017 Cs
   0.7781703122742626   0.7578495649700361   0.7847062570268585 Rb
   0.2225757295114801   0.2396520812331093   0.2132744991277423 Rb
   0.0013993160568407   0.0007384699337665   -0.0022103323353547 Ti
   0.0031937987367255   0.4995710398356779   0.5021271314617490 Zr
   0.4991655092826719   -0.0008256028606121   0.5000826410365982 Hf
   0.4990146581466198   0.4999710127485948   0.0006762212339724 Te
   0.2097961491061766   0.0011280215759153   0.0149041924201647 Cl
   0.7931911380750487   -0.0002941221078043   -0.0189977424259229 Cl
   0.0053042926884177   0.2099513663176522   -0.0148635545749895 Cl
   -0.0025667722172517   0.7910887352545791   0.0113275659420673 Cl
   -0.0136415955879757   0.0140230651291874   0.2028016493493988 Cl
   0.0165285089496476   -0.0128303075284018   0.7934005705951840 Cl
   0.2180822499989762   0.4859041061932562   0.5264135958744611 Cl
   0.7712963312632211   0.5141757250213046   0.4805489597850697 Br
   -0.0188914447930833   0.5160707157303065   0.7314675636151514 Br
   0.0231866654175986   0.4831573504077031   0.2729050193782560 Br
   0.0219592923447294   0.7332563271394770   0.4855205142610135 Br
   -0.0183308376812678   0.2657197234190028   0.5163257870139403 Br
   0.5296208049897727   0.2282712563266410   0.5044383946367317 Br
   0.4672904096356453   0.7702033474711427   0.4960277901618930 Br
   0.4755568244058687   -0.0005960929602246   0.7257081447696319 Br
   0.5240392537980400   -0.0003920716859647   0.2744422328930618 Br
   0.7508141323879949   -0.0302127552011006   0.5274129643022322 I
   0.2479165883583571   0.0287003300972073   0.4718888142475997 I
   0.4796095243343323   0.4942670813154376   0.2565105464229046 I
   0.5169459926723001   0.5057648012404785   0.7445222017692973 I
   0.5071704352084642   0.7627743156936497   0.0013926312976695 I
   0.4927583224405813   0.2372581485633532   -0.0007414906200501 I
   0.7615358715956857   0.4972159091359883   0.0172697041790414 I
   0.2370964708411074   0.5026691277481132   -0.0162124376963803 I
