Random_composition
1.0
  11.2469921690000003  0.0000114590000000  0.0061257750000000
  0.0000224220000000  11.2886185250000004  0.0179594010000000
  0.0059628110000000  0.0179024370000000  11.3379491070000000
Cs Rb Ti Zr Hf Te Cl Br I
6 2 1 1 1 1 7 9 8
Direct
   0.7580434946315124   0.2449770130427696   0.2490870905351874 Cs
   0.2421685562078998   0.7547620668888686   0.7505221072160303 Cs
   0.2423817648333863   0.7548365567103448   0.2494233114600192 Cs
   0.7578485223721719   0.2448649011299014   0.7510070721926771 Cs
   0.2423660698480891   0.2453108922256967   0.7505201869403071 Cs
   0.7578602264688725   0.7549996212367801   0.2490501722286980 Cs
   0.7555110683070796   0.7535432883933385   0.7506585752659461 Rb
   0.2446268956356926   0.2465306643573976   0.2494952041963154 Rb
   0.0001120356113140   -0.0000132709860031   -0.0000106234350543 Ti
   0.0039741552769077   0.5000061303333184   0.5000151077695117 Zr
   0.4998419575197532   0.0000126691340485   0.5000020550103370 Hf
   0.4994694295147916   0.4999960078349693   0.0000044746939528 Te
   0.2094772165755733   0.0003174401665108   0.0002311783765875 Cl
   0.7904692540086180   -0.0003370251293986   -0.0002519136395898 Cl
   0.0003205393766174   0.2099999595229324   0.0000314486298606 Cl
   -0.0002762941976725   0.7899984119374492   -0.0000393550675742 Cl
   0.0002196340552547   0.0001149598194311   0.2095949247553541 Cl
   -0.0001949865995671   -0.0001222570366651   0.7904016242738620 Cl
   0.2213737832856923   0.4997158587694184   0.4996952502654229 Cl
   0.7701582451542212   0.5006847460766083   0.5006064264516916 Br
   0.0013531995771594   0.5004767967875385   0.7344444192272875 Br
   0.0027034019168053   0.4994016983153972   0.2655898748344943 Br
   0.0012259854303756   0.7350906888786992   0.5005808941170935 Br
   0.0025906353135376   0.2649599115784715   0.4992953801102293 Br
   0.4991607470312693   0.2297715859006177   0.4994012268082462 Br
   0.4997156441635835   0.7702388795705052   0.5005681161500275 Br
   0.5002502581801536   -0.0006372596316027   0.7294006126002238 Br
   0.4997608621261213   0.0006324985230908   0.2705910204003354 Br
   0.7553812741785254   -0.0018367156452127   0.5019052067427811 I
   0.2446413973065370   0.0018221878026449   0.4981005473870284 I
   0.4972926114453267   0.4983171730547543   0.2620777524554685 I
   0.5005540900989680   0.5015610589150944   0.7380449412071685 I
   0.5016419610035059   0.7639123656569967   -0.0017333253220572 I
   0.4981157978970041   0.2360779201452117   0.0017153751952367 I
   0.7626038841801080   0.5019768168481943   -0.0018730673911724 I
   0.2372534606443328   0.4980356263835140   0.0018479724117546 I
