Random_composition
1.0
  11.2623614589999992  -0.0070546570000000  0.0179071090000000
  -0.0070625420000000  11.3447513759999996  0.0356092980000000
  0.0177645910000000  0.0355663840000000  11.4256826759999992
Cs Rb Ti Zr Hf Te Cl Br I
6 2 1 1 1 1 7 9 8
Direct
   0.7657574103216639   0.2412981993837244   0.2475392603925572 Cs
   0.2347679709690445   0.7592653845417109   0.7526542895400571 Cs
   0.2357575689765470   0.7594719380391463   0.2469431438768314 Cs
   0.7648232655694246   0.2409683477527349   0.7529461264301278 Cs
   0.2356557805819793   0.2410639501988813   0.7527301616976002 Cs
   0.7648939876410538   0.7585038912715442   0.2473684285691096 Cs
   0.7615092905234375   0.7563380085217486   0.7514265141136943 Rb
   0.2385972796469080   0.2429158919156001   0.2480663456614013 Rb
   -0.0000319429784937   -0.0000263873967466   -0.0000243738921188 Ti
   0.0039528725118895   0.5000922988499742   0.5000533833995839 Zr
   0.4997040842851135   0.0000028770494154   0.4999833974073910 Hf
   0.4991368791178953   0.4999579982771638   0.0000576550364876 Te
   0.2098053275623819   0.0001599612003602   -0.0001297693116059 Cl
   0.7902753692673549   -0.0001770562985964   0.0001063181699913 Cl
   0.0002880949512387   0.2088966562114141   -0.0005228416016207 Cl
   -0.0002487725089793   0.7910742516178245   0.0004931745603512 Cl
   0.0000844660444215   -0.0000937217875624   0.2081697778829858 Cl
   -0.0000315562472050   0.0000730288161572   0.7917949606266731 Cl
   0.2215697236016873   0.5004853376129809   0.5002301006733012 Cl
   0.7690035319915711   0.5003151451466608   0.5003073917711000 Br
   0.0018803718406684   0.4997193948771343   0.7324605372339792 Br
   0.0037297728019856   0.4998961362498318   0.2676384726218980 Br
   0.0019767090936331   0.7343455309661198   0.5000922252120542 Br
   0.0032651452387004   0.2658098231083227   0.4995356856422046 Br
   0.5007333409205044   0.2295899328222599   0.4993984113644340 Br
   0.4976539538931853   0.7704168283822487   0.5005682912926432 Br
   0.4983811400831082   -0.0008402358382568   0.7292890579144369 Br
   0.5018483304880533   0.0008605506529610   0.2706947839656454 Br
   0.7555518921539979   -0.0027292774300611   0.5028099939824877 I
   0.2440888447857797   0.0026663784588095   0.4971706538391542 I
   0.4971677797361454   0.4981992898779818   0.2592411078965207 I
   0.4998835421108327   0.5015255900524337   0.7409631263886252 I
   0.5013207030877374   0.7615415734742733   -0.0020572219595032 I
   0.4981899976763982   0.2383903151059252   0.0021285332638428 I
   0.7633879735891481   0.5020133918521924   -0.0020153208150243 I
   0.2356711500126167   0.4980087496003684   0.0018875081401256 I
