Random_composition
1.0
  11.2993863260000005  -0.0968670920000000  0.0359226740000000
  -0.0977642770000000  11.3254510079999999  0.0275290670000000
  0.0359012340000000  0.0272907060000000  11.4184691350000005
Cs Rb Ti Zr Hf Te Cl Br I
6 2 1 1 1 1 7 9 8
Direct
   0.7603819488100583   0.2417487754824023   0.2558407694027531 Cs
   0.2392828782730018   0.7616231818882999   0.7476026289199283 Cs
   0.2402386439103649   0.7632456351708505   0.2425796761839327 Cs
   0.7596015980018836   0.2406668441339534   0.7533643647010879 Cs
   0.2358052640965396   0.2417840233940606   0.7507559073321286 Cs
   0.7635907950528615   0.7544500167588151   0.2521047644571499 Cs
   0.7780716005744543   0.7454894878128506   0.7590445667466534 Rb
   0.2178162599927928   0.2373924296229811   0.2236254470901975 Rb
   -0.0015291626951971   -0.0000109355705055   0.0002097682824840 Ti
   0.0058974914963552   0.5015865750033530   0.5007965488454237 Zr
   0.5002184897908594   -0.0001389400351306   0.5001068507203182 Hf
   0.4989737307851742   0.4997380894206581   0.0005454501750358 Te
   0.2084673597439140   -0.0001972594104957   -0.0011843334230104 Cl
   0.7906181375740553   0.0020066654758888   0.0032424347186456 Cl
   0.0043892633616640   0.2098888971459736   -0.0040763537597397 Cl
   -0.0049570385406358   0.7910882950579878   0.0050602358966690 Cl
   0.0009776430650609   0.0046378763596336   0.2088132109346761 Cl
   -0.0018207121959871   -0.0039083276500473   0.7924751462284703 Cl
   0.2221603955091273   0.5032790747211694   0.5074081764086423 Cl
   0.7713318347272680   0.5032370114876523   0.4972591321497798 Br
   -0.0027674747883170   0.5017634749037163   0.7341059677677927 Br
   0.0098841596276903   0.5000799427138176   0.2680970771225547 Br
   0.0072654813487237   0.7363910699068654   0.4999064916577706 Br
   -0.0001585769339773   0.2670848980952955   0.5011856695317983 Br
   0.5203010317293947   0.2293213214612822   0.4999011974499929 Br
   0.4803022889432125   0.7702960867013584   0.5007160467200579 Br
   0.4847607407891076   0.0013826538544894   0.7291194586891560 Br
   0.5157926245138926   -0.0018272094420932   0.2710557443801451 Br
   0.7546371148379095   -0.0169769562036824   0.5159701100948122 I
   0.2462139230841262   0.0172747246740585   0.4839002247260380 I
   0.4902869345818813   0.4991981204692577   0.2593854823059767 I
   0.5046415843700159   0.4996759160836154   0.7412067426064535 I
   0.5076115713515622   0.7615831661158727   -0.0048360632541453 I
   0.4928338864524339   0.2376431483668192   0.0045272263905222 I
   0.7621471915460978   0.4983454421482090   0.0040340477595932 I
   0.2367317663977063   0.5011585524738406   -0.0038516954346897 I
