Random_composition
1.0
  11.3053195209999995  -0.1063048130000000  -0.0467284690000000
  -0.1067674840000000  11.3650358300000001  0.0552395470000000
  -0.0479806370000000  0.0552010890000000  11.5391297680000005
Cs Rb Ti Zr Hf Te Cl Br I
6 2 1 1 1 1 7 9 8
Direct
   0.7588264346429460   0.2476850011510878   0.2697046356906273 Cs
   0.2421932009100801   0.7509262439998036   0.7306492483785523 Cs
   0.2384849963894544   0.7590606591076380   0.2360553981600844 Cs
   0.7619278213845216   0.2430964810604357   0.7622381720224997 Cs
   0.2429288769158369   0.2394792074236617   0.7388393356319662 Cs
   0.7618541151725123   0.7655157524388235   0.2566037121125542 Cs
   0.7760808860482672   0.7625272086192820   0.7884280354724490 Rb
   0.2246702227217282   0.2349509618624599   0.2082825966219932 Rb
   0.0002111733084047   -0.0000873939192245   -0.0015274379392954 Ti
   0.0030575591844979   0.5001214617622494   0.5022853983443342 Zr
   0.4990005378722678   -0.0003519857986369   0.4997453959390307 Hf
   0.4996352584991934   0.4996551246867206   0.0008195130945132 Te
   0.2086037594901965   -0.0017314443075946   0.0189037980240720 Cl
   0.7917875818557217   0.0010563702136604   -0.0212831761906169 Cl
   0.0083624978846517   0.2073302089000193   -0.0236640080825796 Cl
   -0.0077252294057890   0.7922540707852141   0.0216095373647342 Cl
   -0.0174421011557706   0.0216873692410803   0.2024976756344551 Cl
   0.0179584243528506   -0.0220406076704138   0.7952988541916344 Cl
   0.2179116629098803   0.4917988714673962   0.5346500174232248 Cl
   0.7712155323444460   0.5102326075428145   0.4723105478979983 Br
   -0.0267509275492528   0.5233215295066441   0.7298463658187712 Br
   0.0312582729567032   0.4765708793840392   0.2749544511187341 Br
   0.0185808327839717   0.7325289513889935   0.4785676040964363 Br
   -0.0148297545776449   0.2676448052133389   0.5237346812092851 Br
   0.5233831859274571   0.2280034431855532   0.5110560507271974 Br
   0.4739620299033427   0.7714849366719642   0.4885863279947848 Br
   0.4746887678894181   -0.0091465352137215   0.7253915068230987 Br
   0.5239875940130789   0.0087106427593764   0.2740097416055958 Br
   0.7516970854330445   -0.0232943002557343   0.5286050632226373 I
   0.2466575552964969   0.0232755434694007   0.4703439781481500 I
   0.4713521364173193   0.4864649398870218   0.2558922137241640 I
   0.5263921451394380   0.5124798735229883   0.7452007660770389 I
   0.5054911938784969   0.7611031307776819   0.0060106644792942 I
   0.4948634325913769   0.2382674842241811   -0.0058355854105248 I
   0.7619445598544237   0.4992070497280010   0.0255858576335143 I
   0.2377788444156997   0.5002125739849489   -0.0243978948404957 I
