Random_composition
1.0
  11.2898410840000007  -0.0942860550000000  0.0360181580000000
  -0.0951060920000000  11.3252468279999992  0.0309238480000000
  0.0360178610000000  0.0307331420000000  11.4139041940000006
Cs Rb Ti Zr Hf Te Cl Br I
6 2 1 1 1 1 7 9 8
Direct
   0.7606893706746702   0.2418511738445071   0.2556901084427948 Cs
   0.2389357557432638   0.7616872288123332   0.7478063184197126 Cs
   0.2400450711873590   0.7630960872474776   0.2427789916743905 Cs
   0.7597099086284584   0.2409683738063444   0.7530547683789731 Cs
   0.2357460265668330   0.2413850047317012   0.7510720401593939 Cs
   0.7636362716680174   0.7545278539406254   0.2520427957471170 Cs
   0.7772834900040736   0.7460235093008435   0.7583543383332692 Rb
   0.2188806463708481   0.2375955391556249   0.2251402246137993 Rb
   -0.0016445868867801   0.0000086669904267   0.0002206928436426 Ti
   0.0062286027984713   0.5015023245030260   0.5007512923185579 Zr
   0.5001819773387555   -0.0001288807775826   0.5001048068198842 Hf
   0.4989753345650422   0.4997561172644129   0.0004891792728656 Te
   0.2089505600651765   -0.0001381614550088   -0.0014369966248187 Cl
   0.7905116957758881   0.0018032076435752   0.0033337815067360 Cl
   0.0042567512804880   0.2100608340171962   -0.0038864186073514 Cl
   -0.0046259726713189   0.7909154320504679   0.0049245612594631 Cl
   0.0012595893757555   0.0044668779641817   0.2089036720764725 Cl
   -0.0019376920550921   -0.0036716761400461   0.7923023691759451 Cl
   0.2222732266285771   0.5036757546541961   0.5067826430825139 Cl
   0.7707701989146790   0.5025252120432520   0.4975351262283783 Br
   -0.0024918372466696   0.5015687995586627   0.7342105883869107 Br
   0.0095598131899337   0.5002258197437577   0.2678046629767114 Br
   0.0067363084521165   0.7363721424020664   0.5000748046733393 Br
   0.0004118350257183   0.2668898067514852   0.5009540827975379 Br
   0.5195238323480134   0.2293928377094776   0.4998950317346695 Br
   0.4809048003724426   0.7701966076653747   0.5006298594214105 Br
   0.4854071055955062   0.0010104969463045   0.7292776547132779 Br
   0.5150711438134338   -0.0015011079801637   0.2708621391636589 Br
   0.7550180177774009   -0.0162039542122956   0.5154517359145714 I
   0.2457098482175848   0.0164541732581859   0.4844749932646877 I
   0.4908578274007980   0.4991466173427242   0.2597327453169895 I
   0.5039326024764564   0.4997636858069747   0.7407872464963882 I
   0.5071059694795005   0.7620038778736663   -0.0048475187881213 I
   0.4932246044609774   0.2372357367100980   0.0045855226673761 I
   0.7623690661642096   0.4988754809329529   0.0033453689752679 I
   0.2365322034105725   0.5006575351202481   -0.0032041369166098 I
