Random_composition
1.0
  11.3079386300000007  -0.0969013190000000  0.0362265590000000
  -0.0978371080000000  11.3293804280000003  0.0271995940000000
  0.0362155840000000  0.0269574960000000  11.4238073349999993
Cs Rb Ti Zr Hf Te Cl Br I
6 2 1 1 1 1 7 9 8
Direct
   0.7602744950977033   0.2416649362105699   0.2558695710879813 Cs
   0.2394309391799547   0.7615915278655064   0.7475109663693912 Cs
   0.2403149890391089   0.7633143687781317   0.2425288078395152 Cs
   0.7595919459267606   0.2404881867559129   0.7535308644553049 Cs
   0.2358381487557005   0.2419893686572633   0.7505671385528367 Cs
   0.7635789207257563   0.7544618391238787   0.2521232215322992 Cs
   0.7783690406921909   0.7453130507980826   0.7593396755792697 Rb
   0.2174253073520260   0.2373330037391701   0.2230515618137053 Rb
   -0.0015378125837648   -0.0000242128834586   0.0001966391915604 Ti
   0.0058109772905609   0.5016286723915873   0.5008264954304331 Zr
   0.5001984408918478   -0.0001572462498459   0.5000980532295959 Hf
   0.4989425658741069   0.4997336710517664   0.0005683284520320 Te
   0.2083728206942188   -0.0002057227794574   -0.0010270686788327 Cl
   0.7905798740135057   0.0020719020737754   0.0031481322819966 Cl
   0.0044515532709191   0.2099190721739660   -0.0041423123312154 Cl
   -0.0051318430925119   0.7910411344066145   0.0050736072155063 Cl
   0.0008100669267892   0.0047134444266580   0.2087764945913224 Cl
   -0.0017409779408902   -0.0040349472091079   0.7925346211702363 Cl
   0.2221022881259987   0.5030359606698586   0.5076969047515496 Cl
   0.7715302753346304   0.5036004389552728   0.4971286908947593 Br
   -0.0029124199364243   0.5018553351325188   0.7340359478839479 Br
   0.0100224061473948   0.4999885022323802   0.2682457212892930 Br
   0.0075184261241602   0.7363169366168721   0.4998184881906644 Br
   -0.0004695218648367   0.2672326993243468   0.5012924518335631 Br
   0.5205784697289931   0.2292957368571379   0.4999020304646785 Br
   0.4800931785542554   0.7703574314120869   0.5007607620662237 Br
   0.4845075245986218   0.0015646909657597   0.7290157437354208 Br
   0.5160839212018374   -0.0019790327611991   0.2711834849293918 Br
   0.7544359852286586   -0.0172876503289203   0.5161536276328974 I
   0.2465095970675200   0.0176036281242120   0.4836838395436631 I
   0.4900339058106495   0.4992281467378467   0.2592724884128579 I
   0.5049951386025998   0.4996345157968533   0.7413593086335641 I
   0.5078515147718904   0.7614662719687181   -0.0048074415731002 I
   0.4926599995563102   0.2377551586427275   0.0044797481410470 I
   0.7620685350754594   0.4980915034498882   0.0043518759661714 I
   0.2368102260614053   0.5013971509051772   -0.0041489336412723 I
