Random_composition
1.0
  11.2619581820000008  -0.0044459570000000  0.0165697240000000
  -0.0044281020000000  11.3594624149999994  0.0341628760000000
  0.0164040260000000  0.0341392730000000  11.4323108439999999
Cs Rb Ti Zr Hf Te Cl Br I
6 2 1 1 1 1 7 9 8
Direct
   0.7636205988129352   0.2422566934295273   0.2480785267964983 Cs
   0.2367876195505424   0.7580273404222769   0.7519101096672364 Cs
   0.2374908569328023   0.7581833744431793   0.2478180619912592 Cs
   0.7629562536137989   0.2420035518169864   0.7522661520907525 Cs
   0.2374256483673858   0.2422178797738480   0.7519399341434087 Cs
   0.7630029255566442   0.7576086264775804   0.2479713157937162 Cs
   0.7597820906201499   0.7556083333235076   0.7511435775182098 Rb
   0.2403402880810882   0.2439359990761820   0.2485913925235500 Rb
   0.0001500871080725   -0.0000227608658670   -0.0000228920757045 Ti
   0.0036344975507791   0.5000478788160976   0.5000420983742672 Zr
   0.4997344221270704   0.0000248515990247   0.4999959122481292 Hf
   0.4992029986699659   0.4999680398145774   0.0000374375705628 Te
   0.2090010142869775   0.0001355153814863   -0.0000050487358520 Cl
   0.7909396825166275   -0.0001551885207821   -0.0000192743669030 Cl
   0.0001944917380645   0.2088111816830654   -0.0003487320486710 Cl
   -0.0001679997221256   0.7911666717682365   0.0003275151329569 Cl
   0.0000779555106436   -0.0000748272128490   0.2079816842855868 Cl
   -0.0000525320704992   0.0000582514389619   0.7919928878733368 Cl
   0.2212698195595499   0.5002244498806669   0.5000961391202466 Cl
   0.7694672477078588   0.5004408340245241   0.5003672240877294 Br
   0.0019363641264477   0.4999699714207845   0.7325437190363621 Br
   0.0034580376417067   0.4997289373426155   0.2675303851763119 Br
   0.0019077692406510   0.7341791938050268   0.5002310376324199 Br
   0.0031392694263385   0.2659520544393316   0.4994713994424947 Br
   0.5001684846229668   0.2301934059965249   0.4994360593744562 Br
   0.4983758621208746   0.7698029916246131   0.5005263978080384 Br
   0.4990662193038998   -0.0007236863191531   0.7299368821898345 Br
   0.5011183105355342   0.0007358500501881   0.2700435206211457 Br
   0.7543294957754848   -0.0023662855791623   0.5024550054624777 I
   0.2454065815729195   0.0023148590684965   0.4975358592018563 I
   0.4971904369734992   0.4981977491871614   0.2595802252273810 I
   0.5001343391736991   0.5015703620839663   0.7406103579133769 I
   0.5014549065178023   0.7614706039176307   -0.0019701174614710 I
   0.4981410049666562   0.2384854322030094   0.0020038462126391 I
   0.7627870321759190   0.5020307287873783   -0.0019882230670465 I
   0.2365293947786067   0.4979916185289986   0.0018900769575494 I
