Random_composition
1.0
  11.3139709330000002  -0.1126310060000000  -0.0164245080000000
  -0.1137675680000000  11.3080431990000001  0.0044788360000000
  -0.0176060390000000  0.0033685180000000  11.5140547059999996
Cs Rb Ti Zr Hf Te Cl Br I
6 2 1 1 1 1 7 9 8
Direct
   0.7584322782748655   0.2432414855540783   0.2605787027168039 Cs
   0.2418830493034351   0.7590489707485847   0.7436444738933305 Cs
   0.2395948936038332   0.7658222855862507   0.2387773296223619 Cs
   0.7597115029908753   0.2373932897709915   0.7580470012443052 Cs
   0.2345998112480694   0.2445849249848882   0.7440409090852519 Cs
   0.7676290505408873   0.7569979331750732   0.2533762027695034 Cs
   0.7777218240665063   0.7533594922201741   0.7789505742084718 Rb
   0.2215805530965540   0.2431725605434286   0.2170156634957197 Rb
   0.0002057886064761   -0.0001574414378707   -0.0019199070556341 Ti
   0.0040392191417827   0.4999621492895738   0.5021078361475551 Zr
   0.4995829515707100   -0.0003798349662384   0.4998401738011733 Hf
   0.4989830452211596   0.4998236929613233   0.0009055821719327 Te
   0.2088876701601380   -0.0020078076879281   0.0123509809083063 Cl
   0.7920797596734438   0.0008955726880890   -0.0161597712990579 Cl
   0.0076658304843872   0.2092628093649457   -0.0117197068934898 Cl
   -0.0062773448735883   0.7902847743582095   0.0084928675690850 Cl
   -0.0122989184295580   0.0108991282693649   0.2039315637161435 Cl
   0.0136617290911873   -0.0107951068210805   0.7927131640199283 Cl
   0.2187990350530440   0.4842933124623749   0.5236300113319268 Cl
   0.7715776034152182   0.5162446127772053   0.4830549054682771 Br
   -0.0163721894419962   0.5131558757943235   0.7324207648100620 Br
   0.0215454266778922   0.4868058719718468   0.2715892558456319 Br
   0.0238172349838037   0.7338884590847823   0.4898773164050308 Br
   -0.0188967439661137   0.2659661688313105   0.5120097621521420 Br
   0.5307389043075882   0.2288722270295438   0.5018902716519619 Br
   0.4665551854274830   0.7707134257280643   0.4981026394941519 Br
   0.4770406846797234   0.0024162075905345   0.7264299632331717 Br
   0.5237702864460820   -0.0030038962328176   0.2734029152717214 Br
   0.7513056646222267   -0.0297808390044645   0.5264412376149498 I
   0.2481644107314843   0.0299802860686002   0.4728005763884409 I
   0.4793439145463002   0.4969632015701290   0.2575719194504016 I
   0.5166621511597347   0.5027992918288399   0.7439667593034973 I
   0.5098980900626139   0.7624663645017742   -0.0006687597670253 I
   0.4897282689069411   0.2372933792670008   0.0014261481433043 I
   0.7617792976525390   0.4952798558414381   0.0160198624750317 I
   0.2368605193575564   0.5042391564428280   -0.0149398358253218 I
