Random_composition
1.0
  11.3087711819999992  -0.1054832910000000  -0.0455091030000000
  -0.1064395690000000  11.3169663450000009  0.0484372670000000
  -0.0467528080000000  0.0479495850000000  11.5552198579999992
Cs Rb Ti Zr Hf Te Cl Br I
6 2 1 1 1 1 7 9 8
Direct
   0.7587887881989840   0.2457619833744682   0.2669354452978885 Cs
   0.2412254458144101   0.7526956030407954   0.7333628905293977 Cs
   0.2406917876034939   0.7613563920766392   0.2376307572033848 Cs
   0.7590242729663468   0.2408211827523593   0.7605729619938915 Cs
   0.2380584843638316   0.2428035253683083   0.7410255446563335 Cs
   0.7657158243925022   0.7620712166633453   0.2551828895998900 Cs
   0.7782678866011649   0.7602280931739269   0.7882969787006331 Rb
   0.2233212118251562   0.2371803778046924   0.2098934341837729 Rb
   0.0011317961227266   0.0009591695097561   -0.0022003001964273 Ti
   0.0025508233113650   0.4994333700091615   0.5023699219509016 Zr
   0.4988981850311320   -0.0008847456898125   0.5000681367002943 Hf
   0.4995819163419433   0.4999273601212703   0.0007598652360444 Te
   0.2096024014036292   0.0034916624201393   0.0171956650874143 Cl
   0.7925207397584003   -0.0019939862590361   -0.0203636548392427 Cl
   0.0045926871459038   0.2096600905524784   -0.0194315950256465 Cl
   -0.0027271710902186   0.7917473354437223   0.0155242231658913 Cl
   -0.0159846105015336   0.0170596881644045   0.2022952621213306 Cl
   0.0180560274476680   -0.0157813599385564   0.7942035056307670 Cl
   0.2179456455025897   0.4883095749197545   0.5302777623333850 Cl
   0.7706418502725259   0.5126321277967683   0.4773618146498873 Br
   -0.0219426325390016   0.5194693545199061   0.7307303399170419 Br
   0.0258060078022564   0.4788374251850686   0.2741437091619386 Br
   0.0203622707771756   0.7328941120308339   0.4817534715306104 Br
   -0.0172394282969762   0.2659986927799784   0.5204064719906549 Br
   0.5268462901847205   0.2282526490349859   0.5071145715607914 Br
   0.4703810087782566   0.7701740462197276   0.4924667433242115 Br
   0.4746381107928521   -0.0048718037494252   0.7253541200021345 Br
   0.5238189420288245   0.0033992153829164   0.2745662930235393 Br
   0.7512680355650946   -0.0276084758093545   0.5293146204648683 I
   0.2468843099404769   0.0266981816365566   0.4706974305445379 I
   0.4774767613469424   0.4905731775243586   0.2562207860614346 I
   0.5199997636023151   0.5090448993864346   0.7448926186494014 I
   0.5058747475057603   0.7626168182349129   0.0027626329864856 I
   0.4941505745511958   0.2372611195226589   -0.0027419582828918 I
   0.7621381675505127   0.4988019655561131   0.0199748358939032 I
   0.2376335741429278   0.5009804668206974   -0.0186177014782032 I
