Random_composition
1.0
  11.3058931010000006  -0.1019724980000000  -0.0400258540000000
  -0.1030250210000000  11.3065108500000004  0.0354275710000000
  -0.0412633480000000  0.0346758270000000  11.5507874170000004
Cs Rb Ti Zr Hf Te Cl Br I
6 2 1 1 1 1 7 9 8
Direct
   0.7585478520708254   0.2452515287117354   0.2659474846807067 Cs
   0.2412678737907470   0.7540838242156348   0.7352599686813964 Cs
   0.2405664177215413   0.7620063979125247   0.2375589422163569 Cs
   0.7585247006231681   0.2404310422572388   0.7599666061019297 Cs
   0.2364743510276851   0.2429002872914689   0.7422792413317462 Cs
   0.7663840377294201   0.7608981002385619   0.2545712511169940 Cs
   0.7783655535741940   0.7594429932789853   0.7870450037078321 Rb
   0.2229261009235914   0.2380397456415977   0.2111950942832261 Rb
   0.0012176464097136   0.0009499732725348   -0.0022123961757387 Ti
   0.0028881375862833   0.4994882834575986   0.5022177046570693 Zr
   0.4990106697562382   -0.0009141402937894   0.5000919422584736 Hf
   0.4994011782994061   0.4999536306058769   0.0006931835567555 Te
   0.2095169462533398   0.0029995378729979   0.0161685798221369 Cl
   0.7928224313725569   -0.0015004655214943   -0.0198664765423205 Cl
   0.0050428629866318   0.2097208732010343   -0.0175077290341467 Cl
   -0.0024320473942740   0.7916802063813647   0.0135874155448675 Cl
   -0.0148541957422963   0.0155736495801221   0.2024938757085345 Cl
   0.0176906999979490   -0.0143888208280828   0.7939630014183620 Cl
   0.2178275236485576   0.4870769910339435   0.5286429883550178 Cl
   0.7709502265237848   0.5134115418654424   0.4787932473951486 Br
   -0.0204793845603899   0.5180552146117948   0.7309057428258613 Br
   0.0244675062473205   0.4805701979516899   0.2737600289804019 Br
   0.0209055115929563   0.7332594152348997   0.4835141501037774 Br
   -0.0175632377447355   0.2656060125735112   0.5185678711155339 Br
   0.5280502967995382   0.2282155368550019   0.5059768075505844 Br
   0.4690712813080019   0.7701279306008143   0.4940781100586662 Br
   0.4751294138194343   -0.0029501021474340   0.7257359756413156 Br
   0.5237861536985540   0.0016663105431026   0.2743012956949553 Br
   0.7510727853466662   -0.0290764240542486   0.5286585421648460 I
   0.2472241371861722   0.0277791707764294   0.4710649596638912 I
   0.4785782002853592   0.4922080553393837   0.2562619896361734 I
   0.5183753346577821   0.5076795113881959   0.7447875415719170 I
   0.5062456378899510   0.7627499195617514   0.0021020676931571 I
   0.4935792270323680   0.2372123839673651   -0.0018135498248044 I
   0.7619319101253125   0.4981626244915986   0.0186003149298453 I
   0.2374870275593645   0.5016313420340086   -0.0173915380520374 I
