Random_composition
1.0
  11.3026202609999995  -0.1074001750000000  -0.0446744940000000
  -0.1078549450000000  11.3622562719999998  0.0562629190000000
  -0.0458690190000000  0.0562516640000000  11.5389887439999992
Cs Rb Ti Zr Hf Te Cl Br I
6 2 1 1 1 1 7 9 8
Direct
   0.7588418188492955   0.2476817179960158   0.2696202974860742 Cs
   0.2421796622367071   0.7508039261910787   0.7307076053581898 Cs
   0.2387174765859626   0.7593104412993370   0.2360547896397840 Cs
   0.7617685836480939   0.2429040011949423   0.7622275515650307 Cs
   0.2429185882427538   0.2396219250924341   0.7388897437380879 Cs
   0.7619720244467497   0.7654234118363125   0.2565073790155579 Cs
   0.7761865828259621   0.7622382503200151   0.7883541786650071 Rb
   0.2246683566133849   0.2352292377872595   0.2084300725960963 Rb
   0.0002279086545156   -0.0000271353282739   -0.0015502477712968 Ti
   0.0029928372257829   0.5000994239539545   0.5022716269760163 Zr
   0.4989580677387222   -0.0003664450253042   0.4997510132305769 Hf
   0.4996557691353518   0.4996716463980593   0.0008145326684108 Te
   0.2086157886141461   -0.0012648083616059   0.0187807589915392 Cl
   0.7918112542189178   0.0006041225628888   -0.0212176498309171 Cl
   0.0080522339797202   0.2073959565015085   -0.0234872377844966 Cl
   -0.0074337301922869   0.7923068488161289   0.0214776538313122 Cl
   -0.0175428010268641   0.0215225040117099   0.2025130119444802 Cl
   0.0180329254936462   -0.0216625474234202   0.7952147812557729 Cl
   0.2178544424109355   0.4916070265660211   0.5344301331320240 Cl
   0.7711898878309701   0.5103402099879196   0.4725136152814824 Br
   -0.0265737610968851   0.5232913954654062   0.7298456663849272 Br
   0.0310539750729214   0.4764775348331047   0.2749313110583477 Br
   0.0185257123093047   0.7326219639407860   0.4785842415766366 Br
   -0.0148787083983482   0.2674742599216637   0.5237344929167020 Br
   0.5234185180014949   0.2280467756410416   0.5109063723839129 Br
   0.4738719645490776   0.7713626022611885   0.4887742768237824 Br
   0.4746065267660390   -0.0089677233391247   0.7254255587238325 Br
   0.5240251674363298   0.0085289471557318   0.2739885414464449 Br
   0.7515096101413167   -0.0235671777985150   0.5286701811678912 I
   0.2467800131301915   0.0234726992087655   0.4702330724139938 I
   0.4715973915350686   0.4865702297277381   0.2558857261171071 I
   0.5262277950002952   0.5123592547575642   0.7452188683078803 I
   0.5055333192593704   0.7611032631078608   0.0059383500162273 I
   0.4948779229863758   0.2382803020515665   -0.0057221586741532 I
   0.7620889125400883   0.4992324873680326   0.0254396347950699 I
   0.2376695377707211   0.5002707728558744   -0.0241588698816514 I
