Random_composition
1.0
  11.2411341419999999  -0.0148479790000000  0.0149429430000000
  -0.0149100960000000  11.3322724879999992  0.0292389000000000
  0.0147040790000000  0.0291123830000000  11.4211065400000003
Cs Rb Ti Zr Hf Te Cl Br I
6 2 1 1 1 1 7 9 8
Direct
   0.7659222658241112   0.2414744772927097   0.2472426300600157 Cs
   0.2347687830795979   0.7595619646741580   0.7533799879190471 Cs
   0.2363502075546492   0.7598407314409596   0.2458440708283545 Cs
   0.7644622873020598   0.2410550529849988   0.7536028552822231 Cs
   0.2361238785855994   0.2409493875943343   0.7536946169922012 Cs
   0.7646367850969999   0.7581170029452127   0.2467972397416386 Cs
   0.7623510171490172   0.7561196741128039   0.7517485363257397 Rb
   0.2377261652354798   0.2425034150763650   0.2471448040935796 Rb
   -0.0000017752963022   -0.0000246387107521   -0.0000279529012299 Ti
   0.0046351341441619   0.5001503878846408   0.5000738650213454 Zr
   0.4997234576734104   0.0000118471490003   0.4999806537535914 Hf
   0.4990762552234620   0.4999375306687531   0.0000669557277479 Te
   0.2101868238268607   0.0003799792946673   -0.0001779091979642 Cl
   0.7897220750569224   -0.0003802653985500   0.0001733935833283 Cl
   0.0007496704880470   0.2092603316291863   -0.0004797910057710 Cl
   -0.0007016159098981   0.7907131239315223   0.0004466206693163 Cl
   0.0005075602948742   0.0004444794737782   0.2081785518012126 Cl
   -0.0004278297364710   -0.0004542071829102   0.7917884000015435 Cl
   0.2223289856029358   0.5008645154690732   0.5004044926070305 Cl
   0.7687660185675759   0.5001549110970464   0.5002298484621378 Br
   0.0012201542923275   0.4998108077592346   0.7328788869766524 Br
   0.0039873512532096   0.4997911132111377   0.2672444271636601 Br
   0.0016237570541450   0.7344763063032642   0.5004217793610147 Br
   0.0032703263072729   0.2657653523670731   0.4992091112337240 Br
   0.5016764842246737   0.2298293099519154   0.4994615452279141 Br
   0.4965231166475835   0.7701298142463604   0.5005244207050348 Br
   0.4974659832003989   -0.0009236165067664   0.7293473159124629 Br
   0.5027405828801961   0.0009182629450282   0.2706297079273906 Br
   0.7565958356300959   -0.0036865104402327   0.5039250794927137 I
   0.2431071533580138   0.0036108319947959   0.4960335206634773 I
   0.4969709822117877   0.4983510365985073   0.2593148522381400 I
   0.4995084321830811   0.5013529256275799   0.7408780258092869 I
   0.5013840087637433   0.7621055329440185   -0.0021648760603598 I
   0.4980735375828116   0.2377932519981402   0.0023171574759028 I
   0.7633000330982799   0.5021644454472098   -0.0020907505596627 I
   0.2356473890960152   0.4978305887835621   0.0019580165560959 I
