Random_composition
1.0
  11.0464766369999996  -0.0014953590000000  0.0059168990000000
  -0.0014950470000000  10.9423883229999994  0.0113330490000000
  0.0059045530000000  0.0113302430000000  10.9507078179999997
Cs Rb Ti Zr Hf Te Cl Br I
6 2 1 1 1 1 7 9 8
Direct
   0.7521426435060030   0.2483465197563497   0.2498327204174341 Cs
   0.2478995039683170   0.7512761628763965   0.7497797485392153 Cs
   0.2479058118287996   0.7512789172938106   0.2502202534400172 Cs
   0.7521368248050988   0.2483420459175791   0.7501702489308718 Cs
   0.2479048138471581   0.2487259109876058   0.7497811544037362 Cs
   0.7521374370699554   0.7516543776759959   0.2498296172563876 Cs
   0.7513765442360907   0.7511215587417707   0.7501872773870597 Rb
   0.2486553782840644   0.2491474608742882   0.2500884122172433 Rb
   0.0000199165867847   -0.0000018231325048   -0.0000018352405266 Ti
   0.0050346565612934   0.5000080570318819   0.5000072767565544 Zr
   0.4999610189716976   -0.0000025139361062   0.5000007214727576 Hf
   0.4999139289955000   0.5000003120533786   -0.0000022344001395 Te
   0.2316973231331026   0.0002041688023529   0.0002097358932027 Cl
   0.7682903078589041   -0.0002045939781527   -0.0002103587748834 Cl
   0.0001932936858363   0.2317033470714786   0.0002020829111449 Cl
   -0.0002064159868481   0.7682977176062997   -0.0002014421692494 Cl
   0.0002031622582327   0.0002183158503163   0.2313637041398056 Cl
   -0.0002135328289255   -0.0002174267541964   0.7686374129830008 Cl
   0.2374762685216783   0.4998051552512657   0.4998143180838673 Cl
   0.7563709454125366   0.5003087480562672   0.5002931953811545 Br
   0.0001737850957969   0.5002948439263365   0.7448914938943425 Br
   0.0007704450730558   0.4996871297497275   0.2551170672306760 Br
   0.0001411672155053   0.7448009818920863   0.5003108830736235 Br
   0.0007614389521938   0.2552075169083261   0.4996702776010761 Br
   0.4995959853297687   0.2448254443352595   0.4997237998864212 Br
   0.5001137769978338   0.7551806253682599   0.5002710755607018 Br
   0.5002645585154692   -0.0002753363944487   0.7449895697267187 Br
   0.4997489130462368   0.0002758062291077   0.2550099917596611 Br
   0.7595465516386654   -0.0005991577009462   0.5006080630734019 I
   0.2404949825660232   0.0005987165624750   0.4993923973758981 I
   0.4991455575701956   0.4994230783214336   0.2687622269579223 I
   0.5002998554846648   0.5005664873348239   0.7312501588796073 I
   0.5005906915840377   0.7691735015951556   -0.0005806953898514 I
   0.4994127850162433   0.2308262270579106   0.0005816117237234 I
   0.7686633780596803   0.5006198070185449   -0.0006092439399509 I
   0.2313781198495493   0.4993808407299468   0.0006101387789202 I
