Random_composition
1.0
  11.3075288680000003  -0.1094348770000000  -0.0100770470000000
  -0.1104578370000000  11.3141588370000008  -0.0044638650000000
  -0.0112360850000000  -0.0056732110000000  11.5072366380000002
Cs Rb Ti Zr Hf Te Cl Br I
6 2 1 1 1 1 7 9 8
Direct
   0.7587907358998557   0.2422884697447348   0.2594756679521780 Cs
   0.2417507543918410   0.7602404860200981   0.7448425729168897 Cs
   0.2397471943404137   0.7665856091554945   0.2387782544891903 Cs
   0.7600836530381571   0.2365180508095491   0.7585005382197020 Cs
   0.2348927687079101   0.2454503201585325   0.7435731923951092 Cs
   0.7678172210797196   0.7568272670008388   0.2534592619170608 Cs
   0.7778506397243713   0.7520058543477613   0.7772835104938858 Rb
   0.2209947032976110   0.2438661251013817   0.2177860452783718 Rb
   -0.0001849731300640   -0.0004535110127805   -0.0019130473359839 Ti
   0.0044113206140746   0.5000894635418320   0.5021619843860843 Zr
   0.4997034717703813   -0.0000362134146742   0.4997677161455188 Hf
   0.4991130317745042   0.4996859158983846   0.0009602753726282 Te
   0.2085487994953704   -0.0031950746050190   0.0119696238120072 Cl
   0.7916629699314001   0.0019381551446711   -0.0153254624831959 Cl
   0.0074323593029066   0.2088923888578186   -0.0108742559381610 Cl
   -0.0071332308130697   0.7901173207565162   0.0076660537996189 Cl
   -0.0120610946415552   0.0101738790746619   0.2042561518934448 Cl
   0.0123903434338863   -0.0108702650953320   0.7925244454051896 Cl
   0.2189026938015558   0.4843738134004074   0.5229264211161883 Cl
   0.7717314773387894   0.5166596600805733   0.4838740393114759 Br
   -0.0157196809145842   0.5121260602863459   0.7325431742488077 Br
   0.0211253051085800   0.4879967547910805   0.2716187500659178 Br
   0.0243284512941032   0.7339899909020383   0.4912492693954336 Br
   -0.0189545096943331   0.2660908070463451   0.5108113244620792 Br
   0.5310187695379861   0.2286565223314977   0.5013455423254652 Br
   0.4666783077704333   0.7713007768716348   0.4985919645414380 Br
   0.4772963087821341   0.0031618972136493   0.7264571082177504 Br
   0.5236508947838523   -0.0034544915968669   0.2731543230730419 Br
   0.7516588861898689   -0.0292817889175361   0.5258911398404333 I
   0.2481517318991734   0.0298432071347929   0.4731591105664109 I
   0.4791739853321882   0.4976498748078205   0.2575935642829507 I
   0.5167645606822949   0.5020110427807409   0.7439543167139838 I
   0.5106494781083963   0.7621746954000104   -0.0012863137108882 I
   0.4886696080851340   0.2373087733480781   0.0020546775633004 I
   0.7617923792920854   0.4946895387326687   0.0157513789478901 I
   0.2372711825089955   0.5045777692311244   -0.0145800981917951 I
