Random_composition
1.0
  11.3526770300000006  -0.0880592120000000  0.0434090260000000
  -0.0895673570000000  11.3011255389999992  0.0205376230000000
  0.0435068210000000  0.0202027090000000  11.4477603160000001
Cs Rb Ti Zr Hf Te Cl Br I
6 2 1 1 1 1 7 9 8
Direct
   0.7588470613990855   0.2385515366152429   0.2565305199963124 Cs
   0.2426850518608424   0.7616258448378811   0.7445223396137379 Cs
   0.2413496659122147   0.7647872788820608   0.2428393202278196 Cs
   0.7608808919282939   0.2351940105622333   0.7575980223430280 Cs
   0.2366010569833453   0.2477083448100342   0.7440487748561034 Cs
   0.7640888713929339   0.7554686980379777   0.2528604753334170 Cs
   0.7827556646417870   0.7436924003369962   0.7651284987696481 Rb
   0.2127257678490607   0.2379879671243338   0.2153458848207802 Rb
   -0.0027114763839916   -0.0005875020490718   -0.0004621193499448 Ti
   0.0052884748550082   0.5018661418614858   0.5015874840438529 Zr
   0.5006198488136205   0.0003325126486506   0.5002508432102042 Hf
   0.4992799627197568   0.4997171005064199   0.0010153725601609 Te
   0.2063526476776021   -0.0021267931426845   0.0037820596022651 Cl
   0.7900289896257526   0.0039630326750439   -0.0013562286241035 Cl
   0.0042296030450152   0.2100766930244610   -0.0064657257688670 Cl
   -0.0083882747562881   0.7900472971367344   0.0053284163550291 Cl
   -0.0053010054997772   0.0052935620865385   0.2078923150563197 Cl
   0.0020289467362874   -0.0060616801529727   0.7925905301510071 Cl
   0.2201242975885097   0.4949476731954867   0.5141974855726821 Cl
   0.7725364786058341   0.5131275471430106   0.4939993822106952 Br
   -0.0079623401067861   0.5044792387614316   0.7343388227007415 Br
   0.0152026770567733   0.4970833369527787   0.2696441112684854 Br
   0.0155651954356552   0.7368903004785511   0.4975008383852202 Br
   -0.0094264709807668   0.2671495198920126   0.5043704985445748 Br
   0.5258714198088830   0.2295435700869983   0.4988004637535546 Br
   0.4758565400488494   0.7708488230905857   0.5026172779421531 Br
   0.4802390597626302   0.0044507755456072   0.7281548225785143 Br
   0.5209118612171042   -0.0042570125422215   0.2722467160703452 Br
   0.7535343622407560   -0.0228201889037197   0.5206956046575295 I
   0.2483758892273011   0.0237459450004898   0.4784447270131473 I
   0.4839962106506241   0.4996729043553814   0.2590793325773715 I
   0.5139312090528685   0.4991856440594535   0.7423136426382276 I
   0.5127349066853923   0.7625670409894661   -0.0041989556007997 I
   0.4880441101394938   0.2365985982848327   0.0037776216942159 I
   0.7601986931482054   0.4925709263647450   0.0112174150779559 I
   0.2389037573088187   0.5066791293796878   -0.0102348897181160 I
