Random_composition
1.0
  11.2579026970000005  -0.0304613660000000  0.0202416270000000
  -0.0306631240000000  11.3403615299999991  0.0303634090000000
  0.0200641730000000  0.0302215360000000  11.4370487730000008
Cs Rb Ti Zr Hf Te Cl Br I
6 2 1 1 1 1 7 9 8
Direct
   0.7653628710334706   0.2416131989920337   0.2485966149393545 Cs
   0.2353207793220367   0.7603175562280264   0.7528481396316926 Cs
   0.2374999817084966   0.7605423740308184   0.2451593947393601 Cs
   0.7633041547236390   0.2414014363525184   0.7534933078025945 Cs
   0.2366980925490197   0.2406148908790380   0.7537768814545703 Cs
   0.7639964683272225   0.7574115944819833   0.2475409458004420 Cs
   0.7642941066506881   0.7549575196219805   0.7521202829995985 Rb
   0.2355597405907522   0.2417430735413912   0.2449121097037304 Rb
   -0.0003606508683784   -0.0000211868932626   -0.0000237873020164 Ti
   0.0043548449872762   0.5003321097354999   0.5001613769342971 Zr
   0.4997571066022576   -0.0000508532701534   0.4999738796808748 Hf
   0.4989212276172155   0.4999086320361158   0.0001059794685766 Te
   0.2100091661313835   0.0002548133929286   -0.0007448306271799 Cl
   0.7900235583726124   -0.0001446808751975   0.0008580037568750 Cl
   0.0012151044001076   0.2089835758786413   -0.0010684617790183 Cl
   -0.0011703554313132   0.7910586511884555   0.0011003234119962 Cl
   0.0007474597721690   0.0010120884675981   0.2076439636550642 Cl
   -0.0007050164248694   -0.0009328051340883   0.7923777168125314 Cl
   0.2223699076024227   0.5019080675111249   0.5014553443961296 Cl
   0.7688785533000896   0.4996838599243851   0.4994937640899590 Br
   0.0011297057131656   0.4998187927172030   0.7325439540196648 Br
   0.0048249547561541   0.5000011968068393   0.2677771735534067 Br
   0.0024432881921558   0.7343987851852902   0.5005269984248302 Br
   0.0033474582107235   0.2661806294752432   0.4992266977262514 Br
   0.5045801614128123   0.2297125674145516   0.4998633592820330 Br
   0.4936737440931571   0.7701846503458523   0.5001597809194198 Br
   0.4953037409372393   -0.0006891336676089   0.7290381755261620 Br
   0.5050090117658910   0.0006088685531209   0.2709483337994409 Br
   0.7561997647436294   -0.0053062104437932   0.5055739916675894 I
   0.2433198005146605   0.0051887435479920   0.4943370773027413 I
   0.4965752619027449   0.4986562681539788   0.2588882554685565 I
   0.4993138402541459   0.5009510282275610   0.7413260765789857 I
   0.5020448994891853   0.7618497151423522   -0.0025884789579635 I
   0.4976682161861058   0.2379531943520508   0.0027927934967492 I
   0.7629306152642472   0.5022403995286190   -0.0019124415784521 I
   0.2355621125497496   0.4976590609390019   0.0017164580095989 I
