Random_composition
1.0
  11.3111743090000001  -0.1047058990000000  -0.0440834550000000
  -0.1055098130000000  11.3327372969999995  0.0533015910000000
  -0.0452410310000000  0.0529777900000000  11.5586459890000004
Cs Rb Ti Zr Hf Te Cl Br I
6 2 1 1 1 1 7 9 8
Direct
   0.7587382009088399   0.2463834151715208   0.2677697003833630 Cs
   0.2416160716469470   0.7515454889474743   0.7322131596560961 Cs
   0.2405154097098951   0.7608151968845693   0.2373565288184056 Cs
   0.7596519398032426   0.2413254768927121   0.7611077507355920 Cs
   0.2398942584192921   0.2421903981780402   0.7400872249516881 Cs
   0.7645794364756389   0.7631890023409421   0.2556827259815582 Cs
   0.7777133200373719   0.7605322874094308   0.7886050596147361 Rb
   0.2238759110957896   0.2369304469331422   0.2093446287893312 Rb
   0.0007376638154261   0.0007196024792181   -0.0020353454210646 Ti
   0.0025144327474131   0.4995361331267008   0.5023144388841642 Zr
   0.4989268923001614   -0.0007603501479117   0.4999724841973101 Hf
   0.4995773041504925   0.4998702295286837   0.0007681881673317 Te
   0.2090566911349891   0.0021433773537185   0.0179157399586513 Cl
   0.7922619515573565   -0.0014310531351305   -0.0209097223612011 Cl
   0.0045045365362737   0.2089670138953782   -0.0206996303028180 Cl
   -0.0029638288124556   0.7921590447368168   0.0173528981653463 Cl
   -0.0164991694615869   0.0187671920658811   0.2021372002078183 Cl
   0.0180656401227445   -0.0173907271230680   0.7945994157099626 Cl
   0.2176095242665295   0.4896635231573169   0.5314855339178971 Cl
   0.7709883788242955   0.5116944790421996   0.4760093619010964 Br
   -0.0234202668995888   0.5204239736368336   0.7302981799046305 Br
   0.0274128174245747   0.4780461616419711   0.2748079518776928 Br
   0.0199425641779641   0.7327313026512016   0.4799509733409235 Br
   -0.0170067868719541   0.2663111524978343   0.5221991814345078 Br
   0.5258505687863220   0.2282104661480485   0.5081449275760213 Br
   0.4713304692474808   0.7705650023680929   0.4913443616441622 Br
   0.4739553628791423   -0.0064742189866549   0.7253331128977066 Br
   0.5243141755392213   0.0051630524341966   0.2744031078097314 Br
   0.7510819950557203   -0.0260909782175773   0.5289937061658453 I
   0.2470551651287453   0.0253519121081479   0.4707930109792217 I
   0.4761290158093273   0.4891987900021304   0.2558080194716686 I
   0.5219203508129501   0.5100689776040188   0.7452257446477807 I
   0.5058230599957804   0.7619201023904243   0.0038185159812834 I
   0.4947198427845579   0.2378126432053248   -0.0037397833930459 I
   0.7621862724488501   0.4991575208827131   0.0217892229297561 I
   0.2373412643552352   0.5007531259371218   -0.0202461530171036 I
