Random_composition
1.0
  11.3471724020000000  -0.0860384780000000  0.0427953260000000
  -0.0876253280000000  11.2866555339999994  0.0204323970000000
  0.0428835910000000  0.0200794460000000  11.4440814110000009
Cs Rb Ti Zr Hf Te Cl Br I
6 2 1 1 1 1 7 9 8
Direct
   0.7586606136456900   0.2379517817685136   0.2566908466432370 Cs
   0.2432264462667497   0.7617179992491799   0.7439528796250966 Cs
   0.2415025310281004   0.7650336835801476   0.2428778028301939 Cs
   0.7611453997421974   0.2342670121303186   0.7583238519735818 Cs
   0.2367403218846647   0.2487586846865885   0.7428089314686270 Cs
   0.7642556858077399   0.7556113690671861   0.2530027857478346 Cs
   0.7833486100692284   0.7435679225719353   0.7661124690569527 Rb
   0.2121802063400561   0.2382620325214893   0.2143572145600515 Rb
   -0.0031585406591393   -0.0007513205329820   -0.0005906527313679 Ti
   0.0051597438901507   0.5018474631792090   0.5017314220569925 Zr
   0.5006680625934167   0.0006122237279914   0.5003504459817464 Hf
   0.4993395358244016   0.4997202840499350   0.0010809184330998 Te
   0.2061029004167420   -0.0025721188964259   0.0046515147725510 Cl
   0.7900251565632269   0.0042465346877176   -0.0023213878031663 Cl
   0.0041928110196929   0.2102163444639460   -0.0069087813762338 Cl
   -0.0089349094095267   0.7897878065821410   0.0053953753152932 Cl
   -0.0064807769452545   0.0054142782696141   0.2078398986215524 Cl
   0.0028208762455140   -0.0063852849448532   0.7924130754297042 Cl
   0.2196680469870145   0.4933730465933671   0.5153666972948373 Cl
   0.7727075471060797   0.5148297902088756   0.4933443165242755 Br
   -0.0089051591710909   0.5049667953618964   0.7344594218873787 Br
   0.0162141735695426   0.4965090650755521   0.2698409009792869 Br
   0.0171090231786382   0.7369623773148383   0.4971023624875687 Br
   -0.0110803202284256   0.2670851167592344   0.5049419686252478 Br
   0.5268014088288356   0.2297166934067820   0.4986194605195557 Br
   0.4750718872310017   0.7706434289331398   0.5028794225192629 Br
   0.4795362178413357   0.0049155486465175   0.7280311416501208 Br
   0.5216645364560221   -0.0046156137314934   0.2723215077058391 Br
   0.7532668413977125   -0.0237007172075097   0.5215165593530190 I
   0.2488004761337214   0.0247671079797786   0.4775329932448099 I
   0.4829270253407824   0.4996988001530819   0.2590747854520990 I
   0.5154614026196702   0.4991586060351755   0.7424642790694315 I
   0.5134910928330091   0.7626132630907294   -0.0041442413734696 I
   0.4872047881670422   0.2365371629175723   0.0037291670262520 I
   0.7603227584194696   0.4916964167267690   0.0123972556820341 I
   0.2389463355803023   0.5075360338502681   -0.0112456351402216 I
