Random_composition
1.0
  11.3487474279999994  -0.0864250780000000  0.0415890800000000
  -0.0879960950000000  11.2911160460000008  0.0219627980000000
  0.0416618650000000  0.0216167370000000  11.4499724440000001
Cs Rb Ti Zr Hf Te Cl Br I
6 2 1 1 1 1 7 9 8
Direct
   0.7587344582706521   0.2379883237277998   0.2567410582700816 Cs
   0.2431483480102581   0.7618008078250449   0.7439971098889604 Cs
   0.2415108179892188   0.7650134275092982   0.2427380472300206 Cs
   0.7611108394313634   0.2344105670639994   0.7583081820451348 Cs
   0.2367308500140299   0.2487434190772827   0.7428813931103008 Cs
   0.7643160918545430   0.7555016500741909   0.2530110776204876 Cs
   0.7831661043912526   0.7436815616665617   0.7660905349088870 Rb
   0.2123930978172998   0.2383844779370391   0.2146154663992973 Rb
   -0.0027924811014844   -0.0007447178776254   -0.0005849365336480 Ti
   0.0048098696211576   0.5018131629711269   0.5016962939352433 Zr
   0.5008111177414134   0.0003867549707099   0.5003412244140476 Hf
   0.4994723758403644   0.4996922802420339   0.0010832133309429 Te
   0.2057521323887039   -0.0025859477945316   0.0046436577044190 Cl
   0.7900566109110682   0.0040903084076677   -0.0024722821256970 Cl
   0.0043041369391193   0.2100111784637163   -0.0068743779577460 Cl
   -0.0089623410594787   0.7899598931102995   0.0053941619738301 Cl
   -0.0064608106952796   0.0055171445619160   0.2075662224398381 Cl
   0.0028358978597315   -0.0064014196583089   0.7926388203195844 Cl
   0.2201533183401195   0.4932971028159194   0.5154309209277391 Cl
   0.7725725994424808   0.5147700951964532   0.4931718091337215 Br
   -0.0088470841495606   0.5049416708535258   0.7346339086239048 Br
   0.0161903930641325   0.4964707551749832   0.2697144281038943 Br
   0.0171306281236595   0.7369948271725165   0.4971331688578062 Br
   -0.0110727092727869   0.2670053022426726   0.5049415051914231 Br
   0.5268109270169591   0.2299240062052974   0.4987357543118101 Br
   0.4750540854213978   0.7706253249679498   0.5026944717502175 Br
   0.4795375008579022   0.0049485063223838   0.7281351841015016 Br
   0.5215995691645902   -0.0046253389083107   0.2722206323568488 Br
   0.7529211113879148   -0.0236585856037528   0.5214987495913471 I
   0.2489194962209482   0.0247866806398916   0.4775743617761778 I
   0.4829449648218611   0.4996297445973528   0.2591107979147764 I
   0.5153040657218997   0.4991947658170362   0.7424415478516473 I
   0.5133614229536655   0.7624621245941535   -0.0042110172010512 I
   0.4872265021012043   0.2367008252447360   0.0037980952205259 I
   0.7607285059758154   0.4918494066982161   0.0123650613862524 I
   0.2385274190429753   0.5074163545349643   -0.0112039063357347 I
