Random_composition
1.0
  11.2627827020000009  -0.0698084810000000  0.0333691250000000
  -0.0703733900000000  11.3259240870000006  0.0411288270000000
  0.0333850480000000  0.0410467620000000  11.4228405760000005
Cs Rb Ti Zr Hf Te Cl Br I
6 2 1 1 1 1 7 9 8
Direct
   0.7630608568504227   0.2415595978718506   0.2534292801088718 Cs
   0.2370369441056580   0.7617413164028952   0.7494590072235139 Cs
   0.2387869610285669   0.7621915631066417   0.2444911862796180 Cs
   0.7612945324277620   0.2415007777944874   0.7524427542072111 Cs
   0.2359374627126374   0.2401922470798784   0.7518566061389518 Cs
   0.7638897805293733   0.7560566978298451   0.2510604890455627 Cs
   0.7712357029628478   0.7504260030177832   0.7545260166090012 Rb
   0.2269863428443918   0.2394566123032261   0.2355401072850364 Rb
   -0.0008764573424950   0.0000181519122304   0.0000786581973007 Ti
   0.0057562769563685   0.5008994428725854   0.5004724064481599 Zr
   0.5000255732432872   -0.0000943980742228   0.5000436124991851 Hf
   0.4988870313934369   0.4998273234228859   0.0002490855715520 Te
   0.2092296294390186   0.0003953332670343   -0.0014985825231569 Cl
   0.7903631935009316   0.0004101864751939   0.0023951486611461 Cl
   0.0031761249756662   0.2095034855901505   -0.0026519338096786 Cl
   -0.0032417876296281   0.7909891617003121   0.0031792196507137 Cl
   0.0013197963255403   0.0028702321226291   0.2083989437156806 Cl
   -0.0015575022401203   -0.0023630183100135   0.7921365180977387 Cl
   0.2225893230266945   0.5033901297917296   0.5038211384641270 Cl
   0.7703100781669673   0.5005317141318854   0.4986989975508472 Br
   -0.0012720025818532   0.5003296431033801   0.7334475534817254 Br
   0.0074197596734137   0.5005550043396298   0.2677429618829094 Br
   0.0040777158263511   0.7354291111545281   0.5001703871724803 Br
   0.0021698077747945   0.2665380735399718   0.5001974035339629 Br
   0.5126886123495018   0.2297695937655587   0.4996018142568699 Br
   0.4864815478515553   0.7698659292570551   0.5005867687426210 Br
   0.4897318637732980   -0.0005227250859450   0.7293579490897810 Br
   0.5105767410673860   0.0001530129647724   0.2706565137709467 Br
   0.7556640453456108   -0.0112265585536669   0.5107079844442902 I
   0.2444445789793689   0.0112055929182948   0.4892130103905160 I
   0.4939308806689965   0.4989136508305258   0.2595193556055674 I
   0.5012064094329827   0.5003293130777531   0.7407804710757284 I
   0.5045833995146036   0.7620035512904356   -0.0041458880959294 I
   0.4955786677068292   0.2374971896993329   0.0041526441996828 I
   0.7626241850776858   0.5009528206151065   0.0000979000221914 I
   0.2358860086537987   0.4987068263476492   -0.0002147046066846 I
