Random_composition
1.0
  11.2339759899999994  -0.0219490270000000  0.0144307390000000
  -0.0220568720000000  11.3294806559999994  0.0249179820000000
  0.0141423450000000  0.0247246710000000  11.4275772700000005
Cs Rb Ti Zr Hf Te Cl Br I
6 2 1 1 1 1 7 9 8
Direct
   0.7657405842133109   0.2416598143624570   0.2474074824245842 Cs
   0.2350183885606298   0.7597723919539626   0.7535714975032215 Cs
   0.2370021408506510   0.7600699898309663   0.2452497504431747 Cs
   0.7639156578246720   0.2412439793544650   0.7538303715524783 Cs
   0.2366115627803551   0.2409084780979159   0.7541233249672215 Cs
   0.7642346802983361   0.7577235719189248   0.2467032617551327 Cs
   0.7629769894465153   0.7557438373537460   0.7519378660798589 Rb
   0.2370540199349988   0.2422390257921215   0.2463429440127541 Rb
   -0.0003080215914543   -0.0000349486548176   -0.0000327877171165 Ti
   0.0043582267328685   0.5001907236471858   0.5000887965222316 Zr
   0.4997089656096254   -0.0000312054296559   0.4999729577779230 Hf
   0.4989654294788523   0.4999222922517684   0.0000754757913301 Te
   0.2102864399634078   0.0003525665482091   -0.0003564512303012 Cl
   0.7898314369825674   -0.0003277607571703   0.0003798106731644 Cl
   0.0009466205963287   0.2092502227084267   -0.0006298582409587 Cl
   -0.0008899061297593   0.7907463499692794   0.0006063436303496 Cl
   0.0006998761849387   0.0007298623476056   0.2081483815311452 Cl
   -0.0006092415723244   -0.0007185808507614   0.7918315915610364 Cl
   0.2224835358356349   0.5012747240772596   0.5007551914467122 Cl
   0.7690230286239906   0.4999370914689009   0.4999743052223163 Br
   0.0010968387669704   0.4998548693629304   0.7327903893638369 Br
   0.0042765215247872   0.4997883901823991   0.2673834091277752 Br
   0.0017744499348099   0.7346340163525468   0.5005959409434877 Br
   0.0033383584161242   0.2657247957457122   0.4990699572266960 Br
   0.5026845217529369   0.2299478747270410   0.4996401178448437 Br
   0.4954486168638160   0.7700170535291302   0.5003626669192145 Br
   0.4966519104437467   -0.0008467821005540   0.7294183053034543 Br
   0.5035796371108222   0.0008149934002531   0.2705650193954244 Br
   0.7564950010149928   -0.0043377291826661   0.5047002675435196 I
   0.2431712299222005   0.0042431570118606   0.4952384039787499 I
   0.4968428017691192   0.4984913144956397   0.2591545630040516 I
   0.4992786558476374   0.5011841886634555   0.7410456601040678 I
   0.5015453883319135   0.7619691475780956   -0.0022764583852670 I
   0.4979539026456265   0.2378960164956141   0.0024787641221506 I
   0.7634499163925595   0.5022691512935078   -0.0020890412368325 I
   0.2353592507593621   0.4976951837468617   0.0019393465410333 I
