Random_composition
1.0
  11.2517147929999997  0.0000881110000000  0.0060203060000000
  0.0000991970000000  11.2968590330000005  0.0179477760000000
  0.0058538280000000  0.0178884260000000  11.3476563590000001
Cs Rb Ti Zr Hf Te Cl Br I
6 2 1 1 1 1 7 9 8
Direct
   0.7582468927238557   0.2448687696970902   0.2490558563322048 Cs
   0.2419703605718536   0.7548808362095220   0.7505571690560079 Cs
   0.2421928834955779   0.7549583047250956   0.2493856011019684 Cs
   0.7580434990719617   0.2447510626903374   0.7510417428322963 Cs
   0.2421757133988062   0.2451949169449811   0.7505550974760448 Cs
   0.7580557757197643   0.7551062323669747   0.2490182734965541 Cs
   0.7556600096035426   0.7536249645089430   0.7506770150563395 Rb
   0.2444814188315061   0.2464380423244648   0.2494704670908164 Rb
   0.0001199878180207   -0.0000141459587572   -0.0000114973938895 Ti
   0.0039543658874107   0.5000058111506172   0.5000153354758540 Zr
   0.4998289746398376   0.0000134281046617   0.5000028601606676 Hf
   0.4994590130952944   0.4999961375499073   0.0000061056862233 Te
   0.2094239593900098   0.0003140300789478   0.0002232679118113 Cl
   0.7905169680670172   -0.0003341886121642   -0.0002443813961112 Cl
   0.0003180922217502   0.2099255802592719   0.0000158964715373 Cl
   -0.0002726899217734   0.7900727482599321   -0.0000245343200299 Cl
   0.0002109486500140   0.0001019854406802   0.2095134734783461 Cl
   -0.0001864015743368   -0.0001098066475028   0.7904824405318979 Cl
   0.2210645519056199   0.4997187016127608   0.4996970391983139 Cl
   0.7703670076139568   0.5006902364086069   0.5006087335529801 Br
   0.0013982523818187   0.5004751304840807   0.7341550451472655 Br
   0.0027608274013754   0.4993993071033427   0.2658804758114534 Br
   0.0012679655128574   0.7348206468428318   0.5005821281840868 Br
   0.0026441245963336   0.2652328632265836   0.4992893300871061 Br
   0.4991607034212089   0.2293834606852473   0.4993954520271656 Br
   0.4996974591380690   0.7706258436977707   0.5005721418291733 Br
   0.5002413250301120   -0.0006439359051672   0.7289840024813583 Br
   0.4997721333057344   0.0006389446224916   0.2710074797738476 Br
   0.7551028513404525   -0.0018682560899575   0.5019386735568374 I
   0.2449257080987320   0.0018526185315492   0.4980677985921694 I
   0.4972442149207775   0.4982879970640395   0.2614498696871099 I
   0.5005580273020297   0.5015856286697101   0.7386762407859325 I
   0.5016688311154572   0.7633234452170090   -0.0017642548779160 I
   0.4980801953609626   0.2366662159321317   0.0017460673776357 I
   0.7620572967384824   0.5020127215783760   -0.0019059292339941 I
   0.2377903857954262   0.4979999681430621   0.0018788405784341 I
