Random_composition
1.0
  11.3156572719999993  -0.0999426920000000  -0.0362057210000000
  -0.1011225900000000  11.3042970460000003  0.0267391810000000
  -0.0374771200000000  0.0258271550000000  11.5483930390000005
Cs Rb Ti Zr Hf Te Cl Br I
6 2 1 1 1 1 7 9 8
Direct
   0.7583258215795853   0.2449272870514172   0.2651595393161349 Cs
   0.2414248379843221   0.7550861642138053   0.7368350337552987 Cs
   0.2403921472610895   0.7625675796811389   0.2375406802671517 Cs
   0.7583098613673523   0.2401204130193400   0.7594740240020589 Cs
   0.2355324559559584   0.2429037410015015   0.7431598964728109 Cs
   0.7667299448978369   0.7600539117210334   0.2541459042344991 Cs
   0.7783074063505822   0.7586618974309035   0.7858663237702915 Rb
   0.2227064780856816   0.2388538255947666   0.2123071569053255 Rb
   0.0012710885172734   0.0008380202092702   -0.0021757475012307 Ti
   0.0031604606311633   0.4994918503016343   0.5022472307770407 Zr
   0.4990330714936352   -0.0010324364938998   0.5000813047459834 Hf
   0.4991758408292744   0.4999666815492222   0.0006619381246616 Te
   0.2097410994229001   0.0020658280764623   0.0154626352405953 Cl
   0.7928993498327840   -0.0008238321870569   -0.0194624895430795 Cl
   0.0051837766852177   0.2099256435527268   -0.0160200260575065 Cl
   -0.0022910593865654   0.7913729036955190   0.0122602674462581 Cl
   -0.0140885596621262   0.0146578686976740   0.2026955582677410 Cl
   0.0171804869147183   -0.0134877704901388   0.7936154106377658 Cl
   0.2179206741242104   0.4863476840825999   0.5273864004979557 Cl
   0.7710604202169949   0.5138700728293293   0.4798015026721375 Br
   -0.0195387877882219   0.5169373613845475   0.7311588784615956 Br
   0.0236771578256963   0.4820068803550681   0.2732552285583195 Br
   0.0214430615031864   0.7334543442700697   0.4846565556033546 Br
   -0.0179571507554432   0.2654791170180379   0.5173049734342461 Br
   0.5289588078028575   0.2282017085437205   0.5051143815877310 Br
   0.4680645033102721   0.7703246719296776   0.4952428223278245 Br
   0.4753879285789533   -0.0015880182846994   0.7257082605964847 Br
   0.5238964296059745   0.0004796848633499   0.2744057299471019 Br
   0.7508504008637354   -0.0298703809440192   0.5279586319116976 I
   0.2476999540280837   0.0283509908483325   0.4715106296402033 I
   0.4792526319633162   0.4933883081862322   0.2563117550475937 I
   0.5174299675469555   0.5066223791331500   0.7446999100657949 I
   0.5066707708730245   0.7627289098830923   0.0016989059973565 I
   0.4931617582488471   0.2372769091392064   -0.0011905823734206 I
   0.7618902898277368   0.4976431594746251   0.0177824062670879 I
   0.2371359383939600   0.5021966689375608   -0.0166614220137779 I
