Random_composition
1.0
  11.3065738430000007  -0.1081431940000000  -0.0215523020000000
  -0.1092248460000000  11.3057039419999992  0.0106798470000000
  -0.0227266050000000  0.0096158480000000  11.5270024109999998
Cs Rb Ti Zr Hf Te Cl Br I
6 2 1 1 1 1 7 9 8
Direct
   0.7580503750874338   0.2442225073944364   0.2621322841677133 Cs
   0.2419713396183173   0.7576047454085684   0.7417543288149280 Cs
   0.2396272780609118   0.7646910570503521   0.2384980620242746 Cs
   0.7591055754249323   0.2385719580974358   0.7579336109328130 Cs
   0.2344334400407080   0.2436375780937005   0.7444017327568828 Cs
   0.7673411094957002   0.7575270355384306   0.2533657572331146 Cs
   0.7777269431322543   0.7551607305117634   0.7812340523409690 Rb
   0.2221759629878617   0.2420275739260408   0.2157606546189994 Rb
   0.0009308309785615   0.0003114898982083   -0.0021786466436520 Ti
   0.0038824247239139   0.4998718204215988   0.5019887143518381 Zr
   0.4992686968432337   -0.0006850857064548   0.4999962263254218 Hf
   0.4987527888941485   0.4999413229956039   0.0008458377593219 Te
   0.2096084883912924   -0.0005084994844744   0.0131736743626735 Cl
   0.7925037449133514   -0.0001273177296882   -0.0173356743665578 Cl
   0.0073355261384432   0.2098717159178891   -0.0129160466036590 Cl
   -0.0050753622099178   0.7902487090162805   0.0096912341104438 Cl
   -0.0127545002663759   0.0119621128720300   0.2038905930461447 Cl
   0.0149816543705161   -0.0110158464016665   0.7926562527630235 Cl
   0.2181767310402753   0.4845907921186615   0.5245819025342543 Cl
   0.7716184232057600   0.5155061828919998   0.4820164365388414 Br
   -0.0172565680388954   0.5142789242237519   0.7319748326725762 Br
   0.0220905142336743   0.4854480548627504   0.2721498164594873 Br
   0.0231139195342592   0.7339859135500261   0.4879628805794076 Br
   -0.0188308788011923   0.2654273761922157   0.5137597110064323 Br
   0.5303427245367934   0.2281891364916778   0.5027259364470976 Br
   0.4665950140906460   0.7708485729338487   0.4974418714760061 Br
   0.4765596167929423   0.0013871989563487   0.7262405127738039 Br
   0.5239308139970400   -0.0021965183231411   0.2737915080678987 Br
   0.7512519853063764   -0.0303018968201670   0.5269492113136742 I
   0.2480082598625384   0.0298299068205643   0.4723774990172668 I
   0.4796824697783378   0.4960275462097139   0.2572638277859265 I
   0.5165688686474836   0.5038472660120136   0.7441242684536221 I
   0.5088785479376703   0.7629953652569259   0.0002124429488697 I
   0.4911356586884854   0.2370279470522074   0.0005390544400209 I
   0.7610268572722414   0.4960683498984075   0.0164287244703678 I
   0.2372406526395759   0.5037284167529834   -0.0154313024224203 I
