Random_composition
1.0
  11.3109079349999995  -0.1130367980000000  -0.0186365390000000
  -0.1141913040000000  11.3027806749999993  0.0074473710000000
  -0.0198228160000000  0.0063679610000000  11.5139588919999998
Cs Rb Ti Zr Hf Te Cl Br I
6 2 1 1 1 1 7 9 8
Direct
   0.7583015169174427   0.2435802277179927   0.2610073660726520 Cs
   0.2419309297045795   0.7586128532342858   0.7431578629126948 Cs
   0.2395633073204517   0.7655203929897360   0.2387522434577393 Cs
   0.7595589248043336   0.2377319145610886   0.7579222015307014 Cs
   0.2345060132224038   0.2442725251014392   0.7441993907321669 Cs
   0.7675506469224520   0.7570843267432562   0.2533573575404340 Cs
   0.7776899430409870   0.7538731798761532   0.7795858192556681 Rb
   0.2217833703181093   0.2428879962926321   0.2166990885423640 Rb
   0.0003631568196546   -0.0000288777801724   -0.0019709134940539 Ti
   0.0038221226374471   0.4999455536319354   0.5020599782700612 Zr
   0.4995171633024234   -0.0005785561958079   0.4998640027989505 Hf
   0.4989208948452848   0.4998690965997249   0.0008880914198843 Te
   0.2089948397353942   -0.0015470154279134   0.0125131992419625 Cl
   0.7922760949418415   0.0005123740774163   -0.0164729206762652 Cl
   0.0077146882065416   0.2093766876414231   -0.0120502020274177 Cl
   -0.0059600672422657   0.7903524255786060   0.0088208476504923 Cl
   -0.0124042479091929   0.0111768878740976   0.2038252534451945 Cl
   0.0141168346606693   -0.0107834365315403   0.7928031950448112 Cl
   0.2187142861605754   0.4842929155087908   0.5238970735339865 Cl
   0.7716454022264622   0.5160685967691658   0.4827546717396405 Br
   -0.0166161669429361   0.5135177344072266   0.7323281292008218 Br
   0.0217051871196919   0.4863779690345805   0.2716687024614949 Br
   0.0236114103393014   0.7338232109870440   0.4893481932772738 Br
   -0.0188637074386844   0.2659181256584831   0.5124803823073464 Br
   0.5306218236129726   0.2288385888789741   0.5021092017669431 Br
   0.4665438412219000   0.7706745943530686   0.4979160787912009 Br
   0.4769336375271440   0.0021362541156892   0.7263611552990801 Br
   0.5238104159506212   -0.0028136574506899   0.2735577742756085 Br
   0.7511676514497568   -0.0299584621305083   0.5266227136894538 I
   0.2481928222263218   0.0300063295464760   0.4726725219354257 I
   0.4794278350453395   0.4967037088683286   0.2575244333040554 I
   0.5166249070533449   0.5030912343252194   0.7439970451094610 I
   0.5096116972913513   0.7625749656940505   -0.0004257250229385 I
   0.4901373738023419   0.2372801992077231   0.0011792078411192 I
   0.7616684428567122   0.4955014192848483   0.0161269188540306 I
   0.2368179342514426   0.5041082662627699   -0.0150800273167633 I
