Random_composition
1.0
  11.3417583830000002  -0.0921559300000000  0.0424646210000000
  -0.0934262530000000  11.3198883250000009  0.0235869750000000
  0.0425433180000000  0.0233076360000000  11.4441710350000001
Cs Rb Ti Zr Hf Te Cl Br I
6 2 1 1 1 1 7 9 8
Direct
   0.7593712879888715   0.2400288081307237   0.2561934825680112 Cs
   0.2412833629335222   0.7614818566169590   0.7459406988777537 Cs
   0.2409625688989938   0.7641489668592157   0.2426312613440361 Cs
   0.7601944943322237   0.2375801425150049   0.7557930413288251 Cs
   0.2362681601254042   0.2451190565331744   0.7471013251129235 Cs
   0.7637551773194065   0.7550241691565456   0.2525048499203990 Cs
   0.7811103444996179   0.7441352267707251   0.7626807148877239 Rb
   0.2143050225105700   0.2374542942540132   0.2180995707163931 Rb
   -0.0019190480839438   -0.0003166593203123   -0.0000988310390944 Ti
   0.0054762988137164   0.5018276289899076   0.5012071942795023 Zr
   0.5006492125119111   -0.0000883607049300   0.5001805886675541 Hf
   0.4992356644528509   0.4997114550890153   0.0008435268130304 Te
   0.2066013685773213   -0.0010546110011492   0.0016140641565133 Cl
   0.7906960826145507   0.0031146091459186   0.0008711794228728 Cl
   0.0044373645565129   0.2094784926060300   -0.0053292977521694 Cl
   -0.0070441915789205   0.7910564680385699   0.0051467685698072 Cl
   -0.0023802906085844   0.0051035097643030   0.2076350217516074 Cl
   0.0001398775970348   -0.0052745823830682   0.7933268773969927 Cl
   0.2211890383735244   0.4987589406457236   0.5113505433250524 Cl
   0.7722659423573059   0.5088734775332814   0.4954577501605689 Br
   -0.0055936287794566   0.5032765638095131   0.7340948273058969 Br
   0.0127085131644812   0.4984481609577635   0.2691670234631101 Br
   0.0117989437674206   0.7365141439856103   0.4985268748758596 Br
   -0.0053419610777475   0.2674854131227014   0.5029554045458543 Br
   0.5235663249260232   0.2290253119750723   0.4993550797745248 Br
   0.4777546865673913   0.7711553393391424   0.5017928418782875 Br
   0.4819892843010572   0.0033227491622025   0.7283030032165781 Br
   0.5189733560971189   -0.0033846689899018   0.2720373382838984 Br
   0.7535308810930101   -0.0205572427407631   0.5186296553713805 I
   0.2477937009182830   0.0211883894430440   0.4807633289965274 I
   0.4866529694410063   0.4995464812004210   0.2590385679018953 I
   0.5100037608072183   0.4992960188985622   0.7420184454516401 I
   0.5107199827200009   0.7620506612243713   -0.0043980468523611 I
   0.4901203137838828   0.2371441007355697   0.0039796429567534 I
   0.7603894389096924   0.4948822420915173   0.0082668788593599 I
   0.2383364954920289   0.5044434128246039   -0.0076789452770308 I
