Random_composition
1.0
  11.2543224350000006  -0.0426213250000000  0.0244785900000000
  -0.0429007320000000  11.3414751819999999  0.0327873670000000
  0.0243302000000000  0.0326443950000000  11.4427744459999996
Cs Rb Ti Zr Hf Te Cl Br I
6 2 1 1 1 1 7 9 8
Direct
   0.7648938168189867   0.2415454733040899   0.2499294949210382 Cs
   0.2356680428534529   0.7607985695704376   0.7519327272676460 Cs
   0.2377995064004840   0.7609858894527868   0.2451493117319906 Cs
   0.7628186399216673   0.2414886738735323   0.7531014036988880 Cs
   0.2365122885004477   0.2403525418660173   0.7532098116880327 Cs
   0.7639619770871823   0.7571525062218033   0.2485790718251155 Cs
   0.7658478842580935   0.7539890100888744   0.7524662702987206 Rb
   0.2337132749580205   0.2412143527919210   0.2430608291878315 Rb
   -0.0003296804347565   -0.0000161850587862   -0.0000149788168204 Ti
   0.0047766862489784   0.5004361227005809   0.5002305269279894 Zr
   0.4996492303681633   -0.0000349420803217   0.4999941634788398 Hf
   0.4987526043351077   0.4998850357943881   0.0001154724640327 Te
   0.2098018348112753   0.0003072489619632   -0.0009993841121343 Cl
   0.7899859509467059   -0.0000688260595737   0.0012509653575575 Cl
   0.0016715373323073   0.2092153109154410   -0.0015014309806689 Cl
   -0.0016525679429808   0.7909162198362021   0.0016200959176978 Cl
   0.0008819551445371   0.0013705850778858   0.2080949409902985 Cl
   -0.0009046651271794   -0.0011985680335750   0.7920187088879308 Cl
   0.2221090465743994   0.5023103683711516   0.5019546331550512 Cl
   0.7695329975761229   0.4997691388539039   0.4992964625888587 Br
   0.0005550365130345   0.4998024423395328   0.7326421793024899 Br
   0.0054106547895549   0.5002475888524359   0.2678865836234980 Br
   0.0027096206582172   0.7346929145806465   0.5003624822899176 Br
   0.0031630417528728   0.2662165907729766   0.4995024641189730 Br
   0.5064175803935336   0.2295054079883376   0.4997580578580390 Br
   0.4919970830258679   0.7702858708850083   0.5002843485725553 Br
   0.4939515394589709   -0.0007807412334186   0.7289957868697701 Br
   0.5063729251520079   0.0006318745635749   0.2709774628441444 Br
   0.7559413254388913   -0.0066675263068366   0.5066353671673631 I
   0.2438502644212557   0.0065441986192371   0.4932655405339265 I
   0.4960898250951007   0.4987208627975191   0.2589638282737525 I
   0.4996346695118526   0.5008075725661891   0.7412738515581091 I
   0.5026081524456757   0.7617818590533937   -0.0030088821940501 I
   0.4972890463874207   0.2379594606698327   0.0031797359395305 I
   0.7627235726182042   0.5020361920097909   -0.0016150665714314 I
   0.2357948877932958   0.4977980295774266   0.0014058292423655 I
