Random_composition
1.0
  11.3160998740000007  -0.1046544510000000  -0.0225279700000000
  -0.1058720610000000  11.3013317420000003  0.0127616310000000
  -0.0237133930000000  0.0117181590000000  11.5281224939999998
Cs Rb Ti Zr Hf Te Cl Br I
6 2 1 1 1 1 7 9 8
Direct
   0.7580602818963168   0.2443150932730393   0.2627088410794493 Cs
   0.2418869026134898   0.7572030030269026   0.7409190941555542 Cs
   0.2397749808116997   0.7643003438140259   0.2382441656083212 Cs
   0.7588871043663284   0.2388971627301057   0.7582099750442540 Cs
   0.2345609109614294   0.2434585940783479   0.7442727345141884 Cs
   0.7672431758962436   0.7579890095965046   0.2534663607823015 Cs
   0.7778460601382469   0.7557994727078222   0.7820751439290459 Rb
   0.2222598629306170   0.2414466879445893   0.2151673710335389 Rb
   0.0010504032946945   0.0003330617202863   -0.0020576279415152 Ti
   0.0035969847829120   0.4997245142861109   0.5021202486289531 Zr
   0.4993292090709128   -0.0007301759523128   0.4999919279724946 Hf
   0.4988670289261450   0.4999507791703638   0.0007718753946563 Te
   0.2096838019200406   -0.0001960447162362   0.0136463029718279 Cl
   0.7928768099069463   -0.0000525371109896   -0.0177650284909868 Cl
   0.0066775431097529   0.2096810228624673   -0.0133096642953335 Cl
   -0.0043985787680445   0.7907415123833917   0.0100284983623503 Cl
   -0.0129345547922988   0.0124661213579593   0.2033227460860900 Cl
   0.0152393576108822   -0.0114603300261174   0.7929452145439710 Cl
   0.2184278621790781   0.4849426148248667   0.5250041436296145 Cl
   0.7713719012043075   0.5151439942471276   0.4816736956406187 Br
   -0.0176237874993056   0.5146412323789666   0.7317102429063522 Br
   0.0223438689133519   0.4849823508926469   0.2723933752299492 Br
   0.0228840120669629   0.7338200716481695   0.4873500253216999 Br
   -0.0187554090028688   0.2655474204697169   0.5143872008301380 Br
   0.5302444706502536   0.2281860914255118   0.5031273139098005 Br
   0.4666790323860882   0.7707184085361981   0.4971449349440420 Br
   0.4762657540646074   0.0009435584473312   0.7262116848283088 Br
   0.5239886076753142   -0.0017716325366976   0.2738951646461185 Br
   0.7513664624356111   -0.0303133992140132   0.5270132766807397 I
   0.2477078225751525   0.0295398500598948   0.4722653997268914 I
   0.4797181788908695   0.4956365316780345   0.2570177362148277 I
   0.5166080950334604   0.5042798275103161   0.7442905558171320 I
   0.5084557675829465   0.7629398295599644   0.0005159660388311 I
   0.4915381637192457   0.2370737375125856   0.0002305587444598 I
   0.7610124372383883   0.4963413816163892   0.0166176183409936 I
   0.2372588483154985   0.5034842981915502   -0.0156070791843486 I
