Random_composition
1.0
  11.2394417089999994  -0.0245763820000000  0.0152668270000000
  -0.0247085880000000  11.3331260399999998  0.0247060280000000
  0.0149881220000000  0.0245074610000000  11.4320254840000004
Cs Rb Ti Zr Hf Te Cl Br I
6 2 1 1 1 1 7 9 8
Direct
   0.7656385100735406   0.2416744488136049   0.2476648007464235 Cs
   0.2351116347734645   0.7599097587995988   0.7534488312349400 Cs
   0.2371895956007101   0.7601919136945294   0.2451698125319411 Cs
   0.7637162672254543   0.2413037708320345   0.7537840805387502 Cs
   0.2367028862487673   0.2408431810269595   0.7541039889805041 Cs
   0.7641260028258035   0.7576126540299520   0.2468535978173506 Cs
   0.7632921419558671   0.7555452538021048   0.7519901386464228 Rb
   0.2367035207446959   0.2421131507129654   0.2459848115238698 Rb
   -0.0002349121499945   -0.0000313212797406   -0.0000328585527523 Ti
   0.0044169595247119   0.5002231692871695   0.5001059565007188 Zr
   0.4996694594962082   -0.0000214488864914   0.4999763314664667 Hf
   0.4989189997423727   0.4999167578004827   0.0000815369533017 Te
   0.2102136918871612   0.0002971866711461   -0.0004799358063862 Cl
   0.7898057656804909   -0.0002543225556006   0.0005238315222717 Cl
   0.0009841453386026   0.2092311407385207   -0.0007631451845865 Cl
   -0.0009344266952865   0.7907711052281782   0.0007520498161394 Cl
   0.0006984159652711   0.0007832185092999   0.2081345943915203 Cl
   -0.0006243274526980   -0.0007572172532912   0.7918525244716708 Cl
   0.2223012633663945   0.5014658909734409   0.5009582022662739 Cl
   0.7689731487378066   0.4998364286481792   0.4998205484379038 Br
   0.0011582127453702   0.4998409399808293   0.7327601959278203 Br
   0.0044220947105838   0.4998421643197788   0.2674463399698463 Br
   0.0019804973195181   0.7346693547298968   0.5005936183794244 Br
   0.0033636626880866   0.2657449597338519   0.4990946838872189 Br
   0.5031957915500422   0.2298703486886193   0.4997293455676666 Br
   0.4949613257026587   0.7700650065037851   0.5002795236470368 Br
   0.4962871337588982   -0.0007849081182259   0.7292638276407575 Br
   0.5039761699800723   0.0007413080509179   0.2707164686218372 Br
   0.7564992379623582   -0.0045673816044453   0.5049370740946297 I
   0.2431545406041959   0.0044643310694820   0.4949934299679284 I
   0.4967904579504374   0.4985432548233371   0.2589321171959647 I
   0.4992509123978385   0.5011153133756913   0.7412752416960359 I
   0.5016662013955826   0.7617939327724977   -0.0023468941159475 I
   0.4978907214777203   0.2380573274129427   0.0025566193440114 I
   0.7632595778263346   0.5022831778954093   -0.0020566761525057 I
   0.2354732791020761   0.4976641616408356   0.0018937821213775 I
