Random_composition
1.0
  11.2909305189999998  -0.1001569380000000  0.0085929860000000
  -0.1008989320000000  11.3270490539999997  -0.0004029500000000
  0.0078152840000000  -0.0013968110000000  11.4921594910000007
Cs Rb Ti Zr Hf Te Cl Br I
6 2 1 1 1 1 7 9 8
Direct
   0.7595283030030764   0.2382122639906580   0.2577086903359498 Cs
   0.2422567420056939   0.7635831691240391   0.7447822129294828 Cs
   0.2415575776328264   0.7665480023940736   0.2385133256966536 Cs
   0.7604529947635688   0.2349833254199236   0.7610266922802940 Cs
   0.2365460422324199   0.2498574446572200   0.7415497539780938 Cs
   0.7671614742383616   0.7554730538928348   0.2532885322674814 Cs
   0.7796736273647803   0.7478944950584752   0.7716932267140486 Rb
   0.2173890749605353   0.2435337008154217   0.2184628670175714 Rb
   -0.0021071933868383   -0.0010447041874681   -0.0016935297404741 Ti
   0.0046652460502333   0.5007093134408663   0.5023574269870751 Zr
   0.5003379319975658   0.0004626448754221   0.4997712391718692 Hf
   0.4991618609576543   0.4994201152497038   0.0011600909701034 Te
   0.2071041662987859   -0.0051464610506159   0.0092096079170202 Cl
   0.7895326470401608   0.0030768365151690   -0.0112357649815430 Cl
   0.0066356507277663   0.2084516507663394   -0.0089724672322796 Cl
   -0.0099926825677359   0.7898490016396920   0.0066031224763323 Cl
   -0.0112339513741777   0.0081496540948351   0.2052460043682142 Cl
   0.0080205683260117   -0.0092848307604377   0.7924844190666226 Cl
   0.2202356166365128   0.4860360994291535   0.5201958231921135 Cl
   0.7718591542506642   0.5179096248316651   0.4873075526982240 Br
   -0.0133830465193783   0.5077001341033984   0.7336201333355141 Br
   0.0204140270450518   0.4923147771296746   0.2713496069414098 Br
   0.0235750508726101   0.7345596549177840   0.4954424288307026 Br
   -0.0176699963962261   0.2668823589738680   0.5078313943387823 Br
   0.5311117211397620   0.2289778206564925   0.5000555757626879 Br
   0.4694477329466943   0.7719925550705059   0.5004922809422854 Br
   0.4775271794045817   0.0050174449407267   0.7267875671194159 Br
   0.5228506393807373   -0.0038520177867173   0.2726829193468198 Br
   0.7528842254140929   -0.0276259771727762   0.5244966665511703 I
   0.2479370746364163   0.0287943320903317   0.4740754848670141 I
   0.4808226172151406   0.4990398059878784   0.2581890190782081 I
   0.5169282949379158   0.4993385801733354   0.7435773283142886 I
   0.5125911867120860   0.7616189411561305   -0.0031906792250419 I
   0.4873676146227978   0.2372822946283000   0.0035387317625693 I
   0.7619238725039164   0.4925955466317868   0.0157203953136490 I
   0.2368869989558848   0.5066876745541591   -0.0141262742650139 I
