Random_composition
1.0
  11.3494480689999993  -0.0868031260000000  0.0425387980000000
  -0.0883599080000000  11.2927558240000003  0.0210298730000000
  0.0426242800000000  0.0206850180000000  11.4473888570000000
Cs Rb Ti Zr Hf Te Cl Br I
6 2 1 1 1 1 7 9 8
Direct
   0.7587455299544186   0.2381502364197522   0.2566598937664653 Cs
   0.2430309232823369   0.7617195778383132   0.7441446252133012 Cs
   0.2414585385224853   0.7649502803894046   0.2428144855983303 Cs
   0.7610516758631739   0.2346053087734722   0.7580944584875878 Cs
   0.2366936330476973   0.2484293762056274   0.7432172528953886 Cs
   0.7642262381936104   0.7555272459645460   0.2529618001598483 Cs
   0.7830986024714096   0.7436479559937087   0.7658016351304007 Rb
   0.2124266696375003   0.2382223696322043   0.2147567335522158 Rb
   -0.0028854561828751   -0.0006985995599457   -0.0005488207643469 Ti
   0.0050697690384606   0.5018405620712879   0.5016742915412223 Zr
   0.5007065991994238   0.0004431029659414   0.5003159494506100 Hf
   0.4993695725445469   0.4997092805158600   0.0010612547605197 Te
   0.2060503440267495   -0.0024400419870382   0.0043805780022973 Cl
   0.7900385156580892   0.0041018192339390   -0.0020802603864370 Cl
   0.0042453433972180   0.2100973727719206   -0.0067595251492593 Cl
   -0.0087767131819710   0.7899309191038304   0.0053742564955331 Cl
   -0.0061101594493195   0.0054151703350339   0.2077553290277071 Cl
   0.0025826935296227   -0.0062916220174586   0.7925512586903851 Cl
   0.2199879632800650   0.4938300544467571   0.5150307084688386 Cl
   0.7726056417397301   0.5142825166607518   0.4934827548211135 Br
   -0.0085935680795932   0.5048069115541639   0.7344862343586527 Br
   0.0158940517086996   0.4966724057486924   0.2697339076274433 Br
   0.0166415744703095   0.7369520190071773   0.4972360204727158 Br
   -0.0105684872736231   0.2670757762678804   0.5047660277178097 Br
   0.5265183172450039   0.2297399750218057   0.4987181978771216 Br
   0.4753068548754858   0.7707001961099361   0.5027306543315382 Br
   0.4797526438143290   0.0047847585131557   0.7281076392573311 Br
   0.5214083263630822   -0.0045083633038283   0.2722607544629022 Br
   0.7532210333973459   -0.0234132636634664   0.5212569726696684 I
   0.2487137789212158   0.0244595060801781   0.4778291104479552 I
   0.4832628746525460   0.4996654095451472   0.2590891875115611 I
   0.5149319003494155   0.4991802742541276   0.7424092799065479 I
   0.5132105665212251   0.7625432623317661   -0.0041858933231969 I
   0.4874709950955129   0.2366168244247391   0.0037700779261174 I
   0.7604345657044574   0.4920224523466639   0.0120223799200396 I
   0.2387784871394577   0.5072280556265611   -0.0109190220568598 I
