Random_composition
1.0
  11.3078431009999996  -0.1055422700000000  -0.0457864080000000
  -0.1063884210000000  11.3271769619999993  0.0501658920000000
  -0.0470009670000000  0.0497396860000000  11.5588635909999997
Cs Rb Ti Zr Hf Te Cl Br I
6 2 1 1 1 1 7 9 8
Direct
   0.7587715522602094   0.2461520632222527   0.2674824355967603 Cs
   0.2414452130608565   0.7519081057824288   0.7325438786905609 Cs
   0.2406165982487537   0.7609982104923165   0.2375130387243999 Cs
   0.7594115721788093   0.2411273656268158   0.7609151444221263 Cs
   0.2392380753754351   0.2424896797235120   0.7403789372259365 Cs
   0.7650169829049727   0.7627939689759350   0.2555174318468448 Cs
   0.7779517571652798   0.7604403767529309   0.7885871630012611 Rb
   0.2236721058622705   0.2369952949348278   0.2094749231068264 Rb
   0.0009124189487659   0.0008176436156714   -0.0021169244919644 Ti
   0.0027373080545504   0.4994987619707580   0.5023761622273694 Zr
   0.4989157967994710   -0.0008372150096143   0.5000029212532351 Hf
   0.4995903292875307   0.4999004083633547   0.0007540963421082 Te
   0.2091989357472228   0.0026871603436132   0.0177200520117898 Cl
   0.7924200924396697   -0.0016301418240870   -0.0207335393254463 Cl
   0.0043539044787418   0.2092118445021852   -0.0203070091883707 Cl
   -0.0027263323462594   0.7920544428624043   0.0167154021565350 Cl
   -0.0163373465065284   0.0181379677269775   0.2021273151866131 Cl
   0.0180659903526650   -0.0167694563729759   0.7944828104635530 Cl
   0.2175355429916432   0.4892238169293860   0.5310537470778264 Cl
   0.7708267265519068   0.5120087687999562   0.4764982272728803 Br
   -0.0229039210442364   0.5200735972672618   0.7305433868419902 Br
   0.0268094186809663   0.4782891148055110   0.2745108705473831 Br
   0.0201376026548260   0.7329606570481267   0.4805076519506762 Br
   -0.0171727575803331   0.2659648884065143   0.5216396324585149 Br
   0.5262171839597652   0.2281921838079517   0.5077416204481308 Br
   0.4709917753375013   0.7704727440278242   0.4917285790577165 Br
   0.4741564479512537   -0.0059772740984351   0.7253602146838073 Br
   0.5241392948094827   0.0045595973027191   0.2744586173510392 Br
   0.7510453849475601   -0.0265752748714044   0.5291524374033766 I
   0.2470896097828983   0.0257903930430243   0.4707720187866042 I
   0.4766624621333218   0.4896565576786004   0.2559637961541132 I
   0.5212056383001077   0.5097348488679553   0.7451271280107767 I
   0.5058183221883839   0.7621578168260769   0.0033926585463189 I
   0.4945393096844229   0.2376304561033906   -0.0033660545334092 I
   0.7623192270681035   0.4990578738566301   0.0211109140473932 I
   0.2373270437687988   0.5008021314771823   -0.0196288182656885 I
