Random_composition
1.0
  11.2329947719999996  -0.0212993360000000  0.0143081730000000
  -0.0214026900000000  11.3282349500000006  0.0251150210000000
  0.0140206040000000  0.0249253010000000  11.4257475419999999
Cs Rb Ti Zr Hf Te Cl Br I
6 2 1 1 1 1 7 9 8
Direct
   0.7657640879418045   0.2416541417266228   0.2473539832487523 Cs
   0.2349956304337519   0.7597425130616238   0.7535941662499035 Cs
   0.2369553397573363   0.7600428080559450   0.2452724515939820 Cs
   0.7639640079158913   0.2412293111384037   0.7538369423911003 Cs
   0.2365863417368035   0.2409221236813741   0.7541216962675098 Cs
   0.7642627385098232   0.7577499814853066   0.2466756664683704 Cs
   0.7629081669711796   0.7557883026133765   0.7519256405142243 Rb
   0.2371291179609323   0.2422662069766076   0.2464234908334254 Rb
   -0.0003089370194240   -0.0000349359579031   -0.0000327945508148 Ti
   0.0043553662944978   0.5001854215808006   0.5000859238570671 Zr
   0.4997224265973785   -0.0000316211325209   0.4999725976996098 Hf
   0.4989807967160205   0.4999239635742764   0.0000739466358969 Te
   0.2102914217738836   0.0003669788233058   -0.0003271648275327 Cl
   0.7898345833602620   -0.0003456567893119   0.0003463748260561 Cl
   0.0009397955874700   0.2092413289267223   -0.0005985207622324 Cl
   -0.0008816719527976   0.7907522191616931   0.0005735166561925 Cl
   0.0007003738137262   0.0007191971294935   0.2081292193388547 Cl
   -0.0006069099794000   -0.0007114947040117   0.7918481061934716 Cl
   0.2225325928464344   0.5012307313925557   0.5007083802428588 Cl
   0.7690219972011114   0.4999619761351440   0.5000110604310957 Br
   0.0010811202051448   0.4998588160084379   0.7327862387740461 Br
   0.0042435450452987   0.4997765193507422   0.2673809633561881 Br
   0.0017265233848857   0.7346121723329977   0.5005952980708456 Br
   0.0033303844089557   0.2657326217162203   0.4990656801183619 Br
   0.5025691640714820   0.2299591473817749   0.4996184016543680 Br
   0.4955601548770657   0.7700107688599377   0.5003830674470865 Br
   0.4967352350214934   -0.0008616969222998   0.7294449870541709 Br
   0.5034885904150309   0.0008324966855481   0.2705385427614654 Br
   0.7564886300001803   -0.0042862581130900   0.5046456398652980 I
   0.2431769523962320   0.0041943102090931   0.4952949661371505 I
   0.4968536577112176   0.4984794035828854   0.2592085638452953 I
   0.4992878584147565   0.5012003297860586   0.7409903303933177 I
   0.5015190554847703   0.7620170696942157   -0.0022618998031771 I
   0.4979674844129908   0.2378512664896592   0.0024612267537427 I
   0.7634971226781296   0.5022639670562195   -0.0020960220684387 I
   0.2353259243077316   0.4977036355483921   0.0019485008419107 I
