Random_composition
1.0
  11.2422127159999992  -0.0253216160000000  0.0157814510000000
  -0.0254657810000000  11.3330252520000005  0.0251226170000000
  0.0155161110000000  0.0249301110000000  11.4308817650000005
Cs Rb Ti Zr Hf Te Cl Br I
6 2 1 1 1 1 7 9 8
Direct
   0.7656028357677412   0.2416732733245780   0.2477723302106957 Cs
   0.2351399555799608   0.7599623147735255   0.7533869289517914 Cs
   0.2372412115742909   0.7602370398221944   0.2451557896473171 Cs
   0.7636557247359620   0.2413217774732575   0.7537551299315700 Cs
   0.2367178282319253   0.2408152061633883   0.7540786894842587 Cs
   0.7640996697360962   0.7575799170516420   0.2469266209228403 Cs
   0.7634111475378037   0.7554728803499648   0.7520052245554267 Rb
   0.2365699494862568   0.2420660934842569   0.2458546336979646 Rb
   -0.0001601263651388   -0.0000258780370835   -0.0000312156889500 Ti
   0.0044688003695101   0.5002420001907436   0.5001155820867537 Zr
   0.4996704920327627   -0.0000125345577266   0.4999784712159283 Hf
   0.4989177438272703   0.4999151723726670   0.0000854856768569 Te
   0.2101512701568157   0.0002827448232397   -0.0005208342965019 Cl
   0.7897871530917936   -0.0002334399152823   0.0005722985767088 Cl
   0.0010024272911091   0.2091820534140257   -0.0008066762090571 Cl
   -0.0009574197684740   0.7908220097383536   0.0008002524385603 Cl
   0.0006975761161873   0.0008065605824180   0.2080573290160441 Cl
   -0.0006322091105833   -0.0007746349710422   0.7919318582886936 Cl
   0.2222585432598594   0.5015295661776999   0.5010289512416241 Cl
   0.7689147761222981   0.4998057222219607   0.4997688803759278 Br
   0.0011732471300009   0.4998368035881594   0.7327120031565524 Br
   0.0044723156898687   0.4998616153395962   0.2675053116039212 Br
   0.0020521648719476   0.7346354608835755   0.5005888229955139 Br
   0.0033671686646129   0.2657933242405197   0.4991075539575103 Br
   0.5033776258565836   0.2298227793059372   0.4997560414361148 Br
   0.4947921923734188   0.7700951295319330   0.5002540288516473 Br
   0.4961609041079794   -0.0007645839022545   0.7291842607342588 Br
   0.5041139775554473   0.0007168456272861   0.2707950624075632 Br
   0.7564832552852911   -0.0046505454287687   0.5050168962574377 I
   0.2431537917366301   0.0045450231515294   0.4949109450852894 I
   0.4967687231261922   0.4985610908325193   0.2588658661890694 I
   0.4992493992982579   0.5010921546509335   0.7413428419609931 I
   0.5017131141625590   0.7617562985103772   -0.0023738389758445 I
   0.4978657805431091   0.2380884430814668   0.0025843632555603 I
   0.7632067596652219   0.5022839367355807   -0.0020421169187367 I
   0.2354922694056460   0.4976584981659437   0.0018739679828433 I
