Random_composition
1.0
  11.0353649580000006  0.0013408540000000  0.0110319470000000
  0.0012978220000000  11.2522537880000009  -0.0110771870000000
  0.0109754220000000  -0.0113521540000000  11.2711744100000004
Cs Rb Pt Sn Te Cl Br I
2 6 1 1 2 9 5 10
Direct
   0.7598234470514047   0.2483745794858044   0.2495222642611722 Cs
   0.2393258736076220   0.7508272743583019   0.7505133463522902 Cs
   0.2423859206817097   0.7512545525512101   0.2494582814758080 Rb
   0.7581850648192551   0.2492668396478676   0.7505497306863519 Rb
   0.2418677419099921   0.2492883795857324   0.7505556062003869 Rb
   0.7575687170666663   0.7512251424661104   0.2494455237026770 Rb
   0.7580318480906245   0.7507343943436502   0.7505485365034847 Rb
   0.2425329227977050   0.2487543093077475   0.2494522562934237 Rb
   0.0000010470633638   0.0000025227938889   -0.0001419535842040 Pt
   0.0000019975845076   0.5000125817369225   0.5028534298790082 Sn
   0.4999953921668503   -0.0000074342526224   0.5000609333116304 Te
   0.5000038445435560   0.4999989982687796   -0.0003475621409681 Te
   0.2126214376086196   0.0004718411592664   0.0003850173978448 Cl
   0.7873699666133632   -0.0004728138594312   -0.0003940548719277 Cl
   0.0005233073018555   0.2092258757341280   -0.0005853994186994 Cl
   -0.0005455270970097   0.7907842129044048   0.0003456323793158 Cl
   0.0005311515009463   -0.0005325949309014   0.2085788184259982 Cl
   -0.0005345024116040   0.0005347070062334   0.7915627507046779 Cl
   0.2242378946523989   0.4995064198061346   0.5015501614840771 Cl
   0.7757854235330516   0.5004423504006751   0.5025079786536919 Cl
   -0.0006437988286755   0.4995888151026892   0.7249085892800551 Cl
   0.0010174301489806   0.5008588777024758   0.2662550302256782 Br
   -0.0009387063165046   0.7371352066965251   0.5013289240980872 Br
   0.0008325765978872   0.2628975019496027   0.5030348013086976 Br
   0.4992798818192271   0.2463571967044515   0.5006240441578168 Br
   0.5007103003250757   0.7536461508162563   0.4993884634466304 Br
   0.5013834826121290   0.0012196380390677   0.7624948351900960 I
   0.4985676203337035   -0.0012631303124079   0.2374389517148716 I
   0.7708886288327269   -0.0016432197836072   0.5015544245536158 I
   0.2291086143190662   0.0016211244459145   0.4984520901764865 I
   0.4984553062894883   0.5014919688880504   0.2663161866375127 I
   0.5015402755046376   0.4985069729144057   0.7337344617686601 I
   0.5013343443465639   0.7649096892821485   0.0008954127922309 I
   0.4986554991766277   0.2350800604863165   -0.0009579405708262 I
   0.7717077236304762   0.5015339282117650   -0.0024849099639596 I
   0.2283872506569639   0.4983677617782207   0.0005962960560084 I
