Random_composition
1.0
  10.9284002939999993  -0.0276629030000000  0.0037950170000000
  -0.0290233740000000  11.4336029999999997  0.0116680540000000
  0.0031406280000000  0.0112547770000000  11.4043381769999996
Cs Rb Pt Sn Te Cl Br I
2 6 1 1 2 9 5 10
Direct
   0.7646902562562389   0.2452178278027033   0.2470293960856830 Cs
   0.2339416194130617   0.7521215336208502   0.7519012729912025 Cs
   0.2310753283842495   0.7588895684443325   0.2425785922689634 Rb
   0.7709948759367724   0.2457179470685399   0.7549238612045889 Rb
   0.2301475420727472   0.2452300361069741   0.7555611816422205 Rb
   0.7685286186833674   0.7586354872364656   0.2419194852148341 Rb
   0.7685268536094942   0.7545291656325180   0.7545908764641872 Rb
   0.2336686156633767   0.2410416395856122   0.2425226868791281 Rb
   -0.0000046976416727   -0.0000212282910897   0.0002297604192202 Pt
   -0.0001614866912458   0.5003791559693539   0.5054666103692143 Sn
   0.4997681186339469   -0.0001495426503553   0.4997742988593810 Te
   0.5001862819618036   0.4996441555591969   -0.0014492809818981 Te
   0.2153029298016634   -0.0020788926731713   -0.0022090559974436 Cl
   0.7846195153515637   0.0019016249138155   0.0028813743356715 Cl
   0.0042073432316695   0.2058974428160569   -0.0011757270971998 Cl
   -0.0042862306921981   0.7939417918291922   0.0014373925399269 Cl
   0.0037290510202057   -0.0009815302299125   0.2066307806873193 Cl
   -0.0037944738189143   0.0008773375731713   0.7937877694233575 Cl
   0.2248820750771177   0.5044879504773085   0.5096455476719742 Cl
   0.7747974776699061   0.4956518432411595   0.5026084152334716 Cl
   -0.0042455946408318   0.5015438479076795   0.7240756932354763 Cl
   0.0047396499629733   0.4999008464440772   0.2712887933397576 Br
   -0.0047037546724635   0.7328094606023337   0.5008924938749585 Br
   0.0037953403183508   0.2678120128993424   0.5081181092364772 Br
   0.5016246410888593   0.2388776798136250   0.4961304198873187 Br
   0.4979078134621583   0.7608792119601996   0.5022520695854712 Br
   0.5012761402024846   0.0043033553962604   0.7573580599497065 I
   0.4981585249629368   -0.0047101652113378   0.2412015844934116 I
   0.7713000851001002   -0.0023631213384376   0.5015995130369878 I
   0.2282065438380912   0.0022705101031238   0.4978103395163930 I
   0.4980776404782711   0.5027987822691253   0.2582555039874467 I
   0.5021491050518171   0.4968047164300382   0.7395087255795110 I
   0.5026050571033043   0.7574101849549294   -0.0021189215278562 I
   0.4978874570968198   0.2419558213348420   -0.0003369458966473 I
   0.7722291158901697   0.5016230064572661   -0.0032175112996637 I
   0.2281736994502386   0.4971476194718423   -0.0014719546261957 I
