Random_composition
1.0
  10.9098491549999999  -0.0164002910000000  0.0075322140000000
  -0.0172141120000000  11.4250782629999996  0.0074843040000000
  0.0070386220000000  0.0071055520000000  11.3874331400000006
Cs Rb Pt Sn Te Cl Br I
2 6 1 1 2 9 5 10
Direct
   0.7665818438543541   0.2442734269708454   0.2461658997645717 Cs
   0.2318201243757356   0.7531274160968181   0.7532485276731021 Cs
   0.2314643373977886   0.7575816495418048   0.2443787423815653 Rb
   0.7704094688104661   0.2456942597744349   0.7541698076202348 Rb
   0.2303576494779371   0.2456006672163477   0.7544928379558893 Rb
   0.7681717217479287   0.7572267195028696   0.2439932350933095 Rb
   0.7684247440391638   0.7543304860685730   0.7539948921018030 Rb
   0.2334657548435465   0.2425832718746955   0.2443216030176245 Rb
   0.0000220154251411   0.0000297617734963   0.0000465084117233 Pt
   -0.0000273179340392   0.5002937848118463   0.5043810825825567 Sn
   0.4998556234127233   -0.0001010489684371   0.4999287957844862 Te
   0.5001638204262463   0.4997813864248866   -0.0012134303306262 Te
   0.2145943787308826   -0.0009340967903117   -0.0011907318842404 Cl
   0.7853008823034443   0.0008567539855924   0.0015032828981177 Cl
   0.0027847157496843   0.2057923797634748   -0.0011785964089524 Cl
   -0.0028953658245239   0.7941384587244756   0.0011923876702395 Cl
   0.0025037930878934   -0.0010895342972784   0.2067506580592357 Cl
   -0.0025478439504995   0.0010538549459191   0.7934414360508890 Cl
   0.2252626534197317   0.5024475716358445   0.5068633758071004 Cl
   0.7745810497314879   0.4975394698399562   0.5032645972689149 Cl
   -0.0027638086137915   0.5008999332450649   0.7239034318689267 Cl
   0.0034524098841094   0.5004892057385721   0.2699684946159404 Br
   -0.0034387237680830   0.7331646348297852   0.5010548561775523 Br
   0.0026971830571657   0.2673298396692962   0.5066311991054780 Br
   0.5009203157496949   0.2394080568094074   0.4981250022344907 Br
   0.4988294620578243   0.7604316792445471   0.5009462042719469 Br
   0.5010373084087419   0.0028978328313793   0.7584478683937397 I
   0.4985376162582257   -0.0032161176944996   0.2407354620384465 I
   0.7714696343632155   -0.0023975890393208   0.5017159705496819 I
   0.2282335827892642   0.0022848328121350   0.4980195032283710 I
   0.4983133100842057   0.5022881780363350   0.2590563899538616 I
   0.5017752589742095   0.4975097642199410   0.7390372267029713 I
   0.5019074969663042   0.7579789341500456   -0.0010154544313864 I
   0.4983738279452867   0.2416357410252656   -0.0005314923558955 I
   0.7723618867886008   0.5016721033865020   -0.0036709117000181 I
   0.2280012407090421   0.4973975763716103   -0.0009782739157066 I
