Random_composition
1.0
  11.2211019029999992  -0.0608426810000000  -0.0471290810000000
  -0.0656999370000000  11.3211782840000001  0.0614955200000000
  -0.0481316580000000  0.0604680270000000  11.2981485629999998
Cs Rb Pt Sn Te Cl Br I
2 6 1 1 2 9 5 10
Direct
   0.7779918417901119   0.2433287465265987   0.2576070226463408 Cs
   0.2210418543333142   0.7601490648728295   0.7461082398085471 Cs
   0.2185430961667456   0.7625717492186574   0.2198851409302116 Rb
   0.7851738865063040   0.2391505368820874   0.7783653921733615 Rb
   0.2270607176589699   0.2504672490159053   0.7526391162071377 Rb
   0.7736910526777566   0.7533471980550613   0.2435253754421432 Rb
   0.7653870991408077   0.7424524294871151   0.7412492804167411 Rb
   0.2356235590624793   0.2424724965763559   0.2461070266542487 Rb
   0.0002536969650392   0.0002493022051595   0.0002156659139756 Pt
   -0.0018187765167746   0.4995495655685904   0.5057159755488874 Sn
   0.4995745459027952   0.0004653687238293   0.4993867658657841 Te
   0.5012870396174953   0.5004383988678401   -0.0013674383892028 Te
   0.2089271595311612   -0.0167420456380064   -0.0074192593331173 Cl
   0.7919094869090127   0.0179492829682602   0.0086800209181709 Cl
   0.0208200213205521   0.2077155916767457   -0.0060941267914031 Cl
   -0.0200338201636824   0.7931178188402312   0.0066623864393524 Cl
   0.0116838472698565   0.0028634955473256   0.2087505349823812 Cl
   -0.0112158141425925   -0.0024462113021130   0.7923459131471898 Cl
   0.2145648332657557   0.5019890510297422   0.5458613091596458 Cl
   0.7807704374171405   0.4981942090067845   0.4681599159144971 Cl
   -0.0384858538628290   0.5100837489980570   0.7235122007917041 Cl
   0.0362511166496426   0.4896107184554568   0.2727951043392497 Br
   -0.0027590315226378   0.7343710278861774   0.4899581033369965 Br
   -0.0015005961252921   0.2646945232866452   0.5215121502499045 Br
   0.5026242981924458   0.2370949229195145   0.4463039158646779 Br
   0.4944725887060057   0.7636836289642346   0.5514736226085117 Br
   0.4974166008422284   0.0539835881632911   0.7555452993777623 I
   0.5029064618546680   -0.0517769258473698   0.2421773402162297 I
   0.7639368056948619   -0.0057820599662287   0.5072051565285094 I
   0.2349932117556934   0.0056904189870071   0.4917535866922075 I
   0.4849579081811689   0.5418368254990538   0.2570753134463848 I
   0.5176093451418217   0.4583752666860659   0.7403023938598873 I
   0.5077043151652486   0.7588654400322020   -0.0458233651438078 I
   0.4966743006045751   0.2416991705828358   0.0426604752519974 I
   0.7664328106522065   0.5015870924915128   0.0144692658292346 I
   0.2355286921542415   0.4986986847023335   -0.0173070377892786 I
