Random_composition
1.0
  11.2099611679999995  -0.0617301710000000  -0.0470062580000000
  -0.0665135050000000  11.3241847179999997  0.0606324300000000
  -0.0480157560000000  0.0596858770000000  11.2871003900000009
Cs Rb Pt Sn Te Cl Br I
2 6 1 1 2 9 5 10
Direct
   0.7777033919555209   0.2435145704311260   0.2575782925364847 Cs
   0.2210925601085993   0.7597674431230821   0.7460929642365753 Cs
   0.2186529479721616   0.7626284924013934   0.2198437111803971 Rb
   0.7853047048802286   0.2393977342785149   0.7781209226225738 Rb
   0.2274534855670716   0.2500122799754818   0.7532016719451550 Rb
   0.7733561701045271   0.7539313604629180   0.2429623016066532 Rb
   0.7657022387943766   0.7429461014437994   0.7413486086215613 Rb
   0.2354797939599653   0.2420330912029566   0.2466039880317412 Rb
   0.0002266471526960   0.0002495948854248   0.0002937442013941 Pt
   -0.0022750280480889   0.4997351988180145   0.5062480798918229 Sn
   0.4996522926275799   0.0004558613130744   0.4994709845580091 Te
   0.5011948165377561   0.5004667221860702   -0.0013196675967405 Te
   0.2086003259411432   -0.0164326496155107   -0.0078193800651045 Cl
   0.7921521126971611   0.0175853061605947   0.0090545723178313 Cl
   0.0205893923352222   0.2077681868328336   -0.0061042834187281 Cl
   -0.0198685463948241   0.7929980698751373   0.0066495956824072 Cl
   0.0117897337417396   0.0027592453502652   0.2084509581929450 Cl
   -0.0114161036390489   -0.0024205973330229   0.7925924133988623 Cl
   0.2148988354454140   0.5031969294327162   0.5452003902574311 Cl
   0.7807688095578992   0.4967166642656096   0.4683810455348057 Cl
   -0.0382462758273315   0.5099072777281841   0.7232003779818935 Cl
   0.0361697294771881   0.4896289188234088   0.2725007048944179 Br
   -0.0038565397356902   0.7344209584935856   0.4896190164161197 Br
   -0.0001949832348275   0.2644507051245292   0.5213851513994414 Br
   0.5024736214554900   0.2371269846341094   0.4464708955593326 Br
   0.4947972471703022   0.7636818709720714   0.5515433073484158 Br
   0.4975621389181469   0.0539246208533289   0.7554924346228705 I
   0.5028884117263571   -0.0515821932400830   0.2424304171664849 I
   0.7639314989216444   -0.0051530958573603   0.5070249938528714 I
   0.2351163858665902   0.0050645748736801   0.4921029026138186 I
   0.4849864719971423   0.5420764610723613   0.2570846263332109 I
   0.5173500472598451   0.4582166782951360   0.7403058013490608 I
   0.5075976684327798   0.7588149267551705   -0.0458451247962089 I
   0.4965187698541089   0.2418000127393373   0.0427601908705259 I
   0.7662994439070416   0.5016836427972982   0.0143342900675218 I
   0.2355482437894454   0.4986284564278805   -0.0172622557369987 I
