Random_composition
1.0
  10.9405913990000005  -0.0631701360000000  -0.0077476940000000
  -0.0662546170000000  11.4426570049999992  0.0133773410000000
  -0.0089750100000000  0.0128900050000000  11.4399710740000007
Cs Rb Pt Sn Te Cl Br I
2 6 1 1 2 9 5 10
Direct
   0.7616179111506236   0.2488822802986058   0.2518958641370514 Cs
   0.2373856721490634   0.7484366777646499   0.7456546038197115 Cs
   0.2292189457256939   0.7617116408790261   0.2377616363094291 Rb
   0.7730755329843323   0.2465956978247680   0.7560351946681430 Rb
   0.2294403112744623   0.2441083761667985   0.7575912610506028 Rb
   0.7702686297945337   0.7626881832725582   0.2365159009786793 Rb
   0.7695638024143202   0.7547812171007212   0.7549158405444610 Rb
   0.2333850986257983   0.2367365427420215   0.2380068335187550 Rb
   -0.0001558774960381   -0.0001632167908488   0.0006041077963243 Pt
   -0.0004998283447321   0.5005852899265858   0.5075755515288815 Sn
   0.4995224380907345   -0.0002610157939946   0.4989613698995043 Te
   0.5003201868250051   0.4993312112665991   -0.0015894617265982 Te
   0.2144241486637074   -0.0059245245890079   -0.0056240922733170 Cl
   0.7857165275490470   0.0053752457345559   0.0075040036531339 Cl
   0.0085650752492216   0.2051973552035199   -0.0009229599744998 Cl
   -0.0084433889558292   0.7943015777798287   0.0020261362544813 Cl
   0.0074267639091803   -0.0003973856548747   0.2060741973041804 Cl
   -0.0075040965240553   0.0000114870701164   0.7955406222638086 Cl
   0.2251899937790107   0.5106002835719000   0.5183373446225222 Cl
   0.7738251144422694   0.4895510675582957   0.5002081239203465 Cl
   -0.0099049864020891   0.5040135380824101   0.7253882762945819 Cl
   0.0098058927622875   0.4977251529988562   0.2747268951670232 Br
   -0.0095069613485124   0.7323589400550885   0.5009531309674259 Br
   0.0078451319901128   0.2686348118551739   0.5127667827352578 Br
   0.5030849267401661   0.2394304319616070   0.4894981612550769 Br
   0.4956846261252927   0.7601599306463196   0.5068353282268911 Br
   0.5021848865729587   0.0094493846850892   0.7569446033715922 I
   0.4971332536642136   -0.0098288531241231   0.2398889911954069 I
   0.7705110515432509   -0.0023657154391490   0.5006482353657317 I
   0.2284228484382755   0.0023796163381997   0.4973131383455369 I
   0.4964171577669265   0.5053315655821881   0.2570177910892042 I
   0.5042521679403100   0.4936666662865271   0.7397468743075940 I
   0.5048441565182785   0.7573740382435695   -0.0062273123131972 I
   0.4963279155017782   0.2413106026002218   0.0014464461918680 I
   0.7720690965621524   0.5011244372936539   -0.0010351387514435 I
   0.2284856024840062   0.4970883887207322   -0.0029842282057160 I
