Random_composition
1.0
  10.9497289860000002  -0.0387788390000000  -0.0058225370000000
  -0.0409820310000000  11.4225476359999991  0.0313224490000000
  -0.0068281170000000  0.0308492180000000  11.4180667790000001
Cs Rb Pt Sn Te Cl Br I
2 6 1 1 2 9 5 10
Direct
   0.7663914258869162   0.2510560956945354   0.2547733085630938 Cs
   0.2324772302241910   0.7512030529315451   0.7479133073268344 Cs
   0.2273963339574311   0.7579920724482661   0.2349366059471762 Rb
   0.7741562565805963   0.2495186663409080   0.7550281658539869 Rb
   0.2327243257320755   0.2419428199591281   0.7576008243591557 Rb
   0.7694893311326504   0.7650764565513074   0.2365581112888494 Rb
   0.7691869044821223   0.7532094290333963   0.7513186269904933 Rb
   0.2335943091691365   0.2370861288125573   0.2399061107584181 Rb
   -0.0000159991318063   -0.0004486814910398   0.0004689025516500 Pt
   -0.0009726179658738   0.4996578942721002   0.5071825152254280 Sn
   0.4994732269480925   -0.0001936531760765   0.4985865275815747 Te
   0.5005947663802738   0.4998213002179855   -0.0009766010176473 Te
   0.2142261301341685   -0.0087895355690410   -0.0075746054323661 Cl
   0.7860776174402374   0.0082060799664901   0.0103353688304066 Cl
   0.0114976238354704   0.2059381793480083   -0.0020356811034190 Cl
   -0.0111303801443061   0.7933401793512755   0.0033189362416501 Cl
   0.0110270062007007   -0.0017689864916702   0.2072644747964974 Cl
   -0.0112372769835361   0.0009071637242910   0.7949021784180174 Cl
   0.2225661134295289   0.5099277045840250   0.5214835252024470 Cl
   0.7753232398234500   0.4851687169601020   0.4944486474926627 Cl
   -0.0166152697832843   0.5059253264155047   0.7254491147290271 Cl
   0.0164454357576254   0.4963126456371242   0.2743310305723651 Br
   -0.0144009815284129   0.7316446219888575   0.4977759684193772 Br
   0.0107224640369124   0.2673070661615477   0.5159971327924217 Br
   0.4980444342590674   0.2389683514595788   0.4844922450724538 Br
   0.5001658940163175   0.7609575388043598   0.5119130316765932 Br
   0.5019636816258135   0.0162548962815270   0.7557158077599595 I
   0.4981313520036984   -0.0150885808374357   0.2404271276973641 I
   0.7699717103842100   -0.0002606932501663   0.4997335770375860 I
   0.2290766629997494   -0.0000961731303794   0.4966696139975452 I
   0.4925684387311274   0.5136611944315022   0.2577624503656517 I
   0.5084015385355410   0.4863526490415052   0.7406644745043282 I
   0.5054177022412573   0.7579407472880325   -0.0153903239954239 I
   0.4966096883947269   0.2418342831878523   0.0118099402371374 I
   0.7711452516456481   0.4999690770481998   0.0046522556638361 I
   0.2295032453621266   0.4994664603286676   -0.0074415593495553 I
