Random_composition
1.0
  11.2107924699999995  -0.0863023260000000  -0.0099694160000000
  -0.0913058020000000  11.3062426469999995  0.0418532370000000
  -0.0108787210000000  0.0410522460000000  11.3161251590000003
Cs Rb Pt Sn Te Cl Br I
2 6 1 1 2 9 5 10
Direct
   0.7757793844415504   0.2448125958978918   0.2536025209590935 Cs
   0.2205668525013768   0.7557210257484820   0.7471002160830610 Cs
   0.2181320629260104   0.7631453895143311   0.2218722848278677 Rb
   0.7872118942116083   0.2423665832267013   0.7739605292222516 Rb
   0.2318686952541912   0.2455264525108914   0.7577943331471116 Rb
   0.7708598425133016   0.7591701278936381   0.2383626247732328 Rb
   0.7672969282366314   0.7471743201272745   0.7413807924968102 Rb
   0.2345513037468272   0.2381855523220275   0.2535469927059937 Rb
   0.0001125671161726   0.0002717724394891   0.0006574465700542 Pt
   -0.0011340885943055   0.4990749028310490   0.5035089938960690 Sn
   0.4999561016246815   0.0002627478135102   0.5009880320211404 Te
   0.5001937210991587   0.5010714971874773   -0.0011704381714949 Te
   0.2089355273238897   -0.0140663119269599   -0.0122098609005084 Cl
   0.7915582272104801   0.0146272564334170   0.0137387288529120 Cl
   0.0180520181139617   0.2076934214143963   -0.0042455057041650 Cl
   -0.0174520409246612   0.7924390475395721   0.0050105379078589 Cl
   0.0140879763592083   0.0018717976173122   0.2083400523572832 Cl
   -0.0141042347282300   -0.0019272314826082   0.7929534115090665 Cl
   0.2151198207626445   0.5143387105511483   0.5397287316298811 Cl
   0.7815979870561721   0.4831716700310851   0.4703173305596901 Cl
   -0.0370606084317086   0.5104344065535705   0.7211865440261777 Cl
   0.0361374702492601   0.4887192758664585   0.2708750338764961 Br
   -0.0153478536930515   0.7333898773872669   0.4877086611330698 Br
   0.0117476999723531   0.2647651092464901   0.5199541148731336 Br
   0.4954450632891636   0.2376862668181321   0.4503883870735378 Br
   0.5032036959362339   0.7631341544350042   0.5509498105356863 Br
   0.4996297719611241   0.0521168183957497   0.7571770052999166 I
   0.5011276258058757   -0.0488111848110435   0.2430945944132694 I
   0.7644163179748779   0.0035020331854297   0.5058449011845353 I
   0.2348701026543941   -0.0045141539189547   0.4956599870453191 I
   0.4836975484330477   0.5447851252611517   0.2565366784413877 I
   0.5176404673752160   0.4573366570167415   0.7411131845773878 I
   0.5071408484267358   0.7596797119046618   -0.0461782765386148 I
   0.4939056959470776   0.2418882666419266   0.0430615725391503 I
   0.7654477835946263   0.5033018004791971   0.0121221934112182 I
   0.2348066346849625   0.4976541995677026   -0.0147318584582136 I
