Random_composition
1.0
  10.9257510789999994  -0.0107483080000000  0.0097713180000000
  -0.0113208350000000  11.4218981650000000  0.0035308920000000
  0.0093897470000000  0.0031760160000000  11.3787818139999999
Cs Rb Pt Sn Te Cl Br I
2 6 1 1 2 9 5 10
Direct
   0.7677825968022691   0.2439840375310155   0.2460734652070141 Cs
   0.2305081409344555   0.7534907232344461   0.7535426267455977 Cs
   0.2316731779102350   0.7567893403823881   0.2453754849964405 Rb
   0.7700538294746244   0.2458166930994718   0.7536296720628863 Rb
   0.2305438867432404   0.2458421381389111   0.7538029448616035 Rb
   0.7679867437605344   0.7564597301238535   0.2451356239439986 Rb
   0.7683711893346441   0.7541483399864306   0.7535067746775325 Rb
   0.2333388370371926   0.2434182799461126   0.2453364985810285 Rb
   -0.0000439480923780   -0.0000000462542226   0.0000176143279115 Pt
   -0.0000228397860191   0.5002460059120700   0.5040332086777550 Sn
   0.4998908982196243   -0.0000766314313918   0.5000786350120887 Te
   0.5001431701207447   0.4998494430502053   -0.0011786826199573 Te
   0.2153510730928329   -0.0004703936597136   -0.0008034781804475 Cl
   0.7845983366355143   0.0004412667201423   0.0009449062528031 Cl
   0.0020479917348464   0.2063164475379275   -0.0010834633156789 Cl
   -0.0021485095985164   0.7936871469634073   0.0009885566272971 Cl
   0.0018290403992055   -0.0010329378197727   0.2071052783661811 Cl
   -0.0018538032405825   0.0010323641441705   0.7929798300405899 Cl
   0.2252760811728074   0.5014828250358365   0.5055319776850421 Cl
   0.7746977494271030   0.4984038150671541   0.5034827511012044 Cl
   -0.0020962216548798   0.5006208805878024   0.7231549896195320 Cl
   0.0028735088103216   0.5007376055549249   0.2698183269362480 Br
   -0.0028501272462863   0.7328359473367362   0.5011951523579763 Br
   0.0021718733170759   0.2675874585014566   0.5058673282966457 Br
   0.5005062654441840   0.2396041943121173   0.4990176866384978 Br
   0.4993376404057966   0.7602832515077245   0.5003625544582169 Br
   0.5009953846214710   0.0023170183389323   0.7588454172673369 I
   0.4986743714031253   -0.0025708627456139   0.2405649757875981 I
   0.7713603771791693   -0.0024236491577649   0.5017269373318353 I
   0.2284418774051370   0.0023116449994870   0.4981051357034590 I
   0.4983199132982714   0.5021269088056501   0.2593430342556829 I
   0.5017005696157838   0.4977592261367211   0.7390518886456970 I
   0.5016363918664085   0.7578795701290790   -0.0004813906889129 I
   0.4985454410776992   0.2418591277430070   -0.0005690788879991 I
   0.7722128496865176   0.5016935016618521   -0.0038112131507861 I
   0.2281435093022564   0.4975525317574207   -0.0006904137157569 I
