Random_composition
1.0
  10.9328626480000004  -0.0292948830000000  0.0032270550000000
  -0.0307451390000000  11.4325466080000009  0.0125788180000000
  0.0025503750000000  0.0121604860000000  11.4038945869999999
Cs Rb Pt Sn Te Cl Br I
2 6 1 1 2 9 5 10
Direct
   0.7643873798463087   0.2453204845326447   0.2470925539218440 Cs
   0.2342838503018404   0.7520040495073887   0.7517769096908828 Cs
   0.2310346669265921   0.7590890852470160   0.2423247579054295 Rb
   0.7710705676485631   0.2457061180668429   0.7550500361643396 Rb
   0.2301181997236454   0.2451790786264360   0.7557298313446381 Rb
   0.7685657832649413   0.7588315233342073   0.2416257508608276 Rb
   0.7685273854748214   0.7545621012587530   0.7547008046117635 Rb
   0.2337097279782692   0.2408256491413198   0.2422634199892485 Rb
   0.0000970277919304   0.0000618885600411   0.0004357203026684 Pt
   -0.0001907165108058   0.5003920099426846   0.5056900720570425 Sn
   0.4997575482643961   -0.0001554376636579   0.4997651606341674 Te
   0.5001896573289994   0.4996245620477098   -0.0014879851650245 Te
   0.2154556944215785   -0.0022269516749177   -0.0023454509117121 Cl
   0.7843942419505789   0.0020250758961316   0.0030395969827644 Cl
   0.0043896572018977   0.2058363052744185   -0.0011972526563535 Cl
   -0.0044822986913403   0.7939264275212415   0.0014642198294483 Cl
   0.0038885627263246   -0.0009837812243547   0.2064917215986525 Cl
   -0.0039731721351932   0.0008581132845323   0.7938158283148093 Cl
   0.2248274961392459   0.5047575637910695   0.5100060484955266 Cl
   0.7748409595578288   0.4954091220822650   0.5025290124093148 Cl
   -0.0044219230784975   0.5016192544684805   0.7240626813487507 Cl
   0.0048912262278449   0.4998311092131874   0.2714394549664750 Br
   -0.0048567715814949   0.7327647423645322   0.5008559413771785 Br
   0.0039302986098947   0.2678732849534585   0.5083121159344796 Br
   0.5017300223388610   0.2387401582410036   0.4958795240942853 Br
   0.4977759290515857   0.7610047896608653   0.5024109145558346 Br
   0.5013011426783981   0.0044721895863075   0.7571278349612954 I
   0.4981096109886948   -0.0048959152275425   0.2413424761794408 I
   0.7713138436244292   -0.0023559138151494   0.5015953557599705 I
   0.2281653192183555   0.0022646575871860   0.4977821539775837 I
   0.4980655176417805   0.5028496426660034   0.2581142291862282 I
   0.5021791576715463   0.4967298628660659   0.7396062021928073 I
   0.5026907748996132   0.7573049110391245   -0.0022552130089293 I
   0.4978277124458333   0.2420272499136247   -0.0003297938355707 I
   0.7722396946021497   0.5016215056736749   -0.0031718870528367 I
   0.2281650777235923   0.4971038386315133   -0.0015406385804520 I
