Random_composition
1.0
  10.8288985469999997  0.0013874660000000  0.0103096680000000
  0.0013729850000000  10.8914982889999994  -0.0188521850000000
  0.0102852460000000  -0.0189826750000000  11.0213319849999998
Cs Rb Pt Sn Te Cl Br I
2 6 1 1 2 9 5 10
Direct
   0.7565505471688334   0.2489649946985279   0.2497804941289092 Cs
   0.2427073560420281   0.7503407427555142   0.7502453733802044 Cs
   0.2451783306140875   0.7507699166199276   0.2496718137078354 Rb
   0.7553436359858278   0.2497118016458734   0.7503512535711341 Rb
   0.2446591879351237   0.2497171899438306   0.7503580666036659 Rb
   0.7548174274558673   0.7507655797624385   0.2496650729937730 Rb
   0.7553171047379733   0.7502912372682936   0.7503528223158130 Rb
   0.2452049855422757   0.2492273415681300   0.2496685973802844 Rb
   0.0000010234458934   -0.0000001835724437   -0.0001052517076618 Pt
   -0.0000028686926064   0.4999950919852413   0.5060237761768563 Sn
   0.4999998011842630   -0.0000029302193615   0.5000253254605765 Te
   0.4999978247214844   0.5000002796443432   -0.0002149208285276 Te
   0.2124052968161916   0.0004014827596353   0.0003926694832832 Cl
   0.7875920719900722   -0.0004003410466660   -0.0003980789337528 Cl
   0.0003871963992795   0.2128247151755129   -0.0004973791707506 Cl
   -0.0003974672035499   0.7871806520282814   0.0003252032549464 Cl
   0.0004340147988082   -0.0004516283286685   0.2139684218278009 Cl
   -0.0004374757214177   0.0004540883170317   0.7862482577042530 Cl
   0.2268729595889161   0.4995804708868011   0.5006998433654394 Cl
   0.7731317295750082   0.5004056073392236   0.5014841232579397 Cl
   -0.0004281220369983   0.4995940440010995   0.7262981338401697 Cl
   0.0006722773247402   0.5006588918584446   0.2637350537168479 Br
   -0.0006392729562503   0.7371508120828597   0.5007682829703117 Br
   0.0006136849442234   0.2628719236932040   0.5020345445341141 Br
   0.4994616032516951   0.2500324208514446   0.5004916267519199 Br
   0.5005377782245712   0.7499700367400055   0.4995002603183201 Br
   0.5010167945063755   0.0009900098063803   0.7679546681429756 I
   0.4989681007474787   -0.0010033368959209   0.2320252119186957 I
   0.7723396666028378   -0.0011403265721711   0.5010742752620745 I
   0.2276609339782492   0.0011361647244804   0.4988974398035694 I
   0.4989200413601280   0.5010635230022751   0.2710228170526724 I
   0.5010855902622448   0.4989347367967784   0.7291949824961046 I
   0.5009624662350306   0.7718121569570252   0.0008352519344656 I
   0.4990392452058005   0.2281863856050986   -0.0008413789725012 I
   0.7733555188478564   0.5010740067980812   -0.0015966036405028 I
   0.2266711878978692   0.4988942686923167   0.0005569510441015 I
