Random_composition
1.0
  10.9405914830000004  -0.0735543320000000  -0.0141781890000000
  -0.0771827910000000  11.4277207599999997  0.0196488160000000
  -0.0156597100000000  0.0191152960000000  11.4403906570000000
Cs Rb Pt Sn Te Cl Br I
2 6 1 1 2 9 5 10
Direct
   0.7614565395796820   0.2518240959644715   0.2559718559624248 Cs
   0.2377390713398442   0.7465176581656671   0.7418874735878779 Cs
   0.2275625696677743   0.7623082559877813   0.2344891927989772 Rb
   0.7745404202058369   0.2479748166037125   0.7561401903377098 Rb
   0.2296405549331518   0.2430128581148024   0.7584488355689177 Rb
   0.7713452857077117   0.7655430241185261   0.2335238669135278 Rb
   0.7703499275645935   0.7545222228526028   0.7540194174458779 Rb
   0.2330097934753277   0.2342742693123575   0.2358293982932030 Rb
   -0.0000190959940746   -0.0003168052645684   0.0009917453382412 Pt
   -0.0008498676333406   0.5005787169514354   0.5086864903299757 Sn
   0.4993744673236832   -0.0002892424706671   0.4983724839293812 Te
   0.5004557956606192   0.4992823685873784   -0.0015064826938275 Te
   0.2140874789547512   -0.0085951393352774   -0.0078516324872692 Cl
   0.7861058663115197   0.0078349750052630   0.0107550181854188 Cl
   0.0119895404658785   0.2056196028054378   -0.0011258524430621 Cl
   -0.0117227808208822   0.7935951776248331   0.0028067736091364 Cl
   0.0105252170211516   -0.0004530392438047   0.2067130573687135 Cl
   -0.0106839873814114   -0.0002375260483341   0.7956208367713304 Cl
   0.2235007794071905   0.5139482076051292   0.5238134380368056 Cl
   0.7747156714470795   0.4848974212018038   0.4975788481068973 Cl
   -0.0149618897871253   0.5059891662035343   0.7269879175310469 Cl
   0.0146245651506509   0.4961702967271419   0.2762238008935582 Br
   -0.0136706959442382   0.7325221718404582   0.5004176126988988 Br
   0.0110912629937548   0.2683517929667628   0.5161549667367884 Br
   0.5028547240887795   0.2391537980642491   0.4846548205022373 Br
   0.4953217728109717   0.7603997304530964   0.5104433918738170 Br
   0.5026948053339363   0.0139637625058143   0.7554893176021724 I
   0.4968420225525514   -0.0139174354306199   0.2400930058753028 I
   0.7705090204300431   -0.0020718600238746   0.4996477221358446 I
   0.2281298028428734   0.0021089466794681   0.4969570707515378 I
   0.4944621332513828   0.5086801215360501   0.2571473041147971 I
   0.5065820719560848   0.4900814506087803   0.7395825151246126 I
   0.5062562198069196   0.7575545651144435   -0.0107083103685876 I
   0.4954633983749578   0.2409334183251925   0.0048993709201289 I
   0.7721054724357409   0.5004260912042540   0.0016777641344539 I
   0.2285732676570257   0.4978109872601538   -0.0048338070928048 I
