Random_composition
1.0
  11.1686437450000007  -0.0730313280000000  -0.0005150190000000
  -0.0773246070000000  11.3405030629999999  0.0310682250000000
  -0.0013434970000000  0.0304408380000000  11.3139858709999999
Cs Rb Pt Sn Te Cl Br I
2 6 1 1 2 9 5 10
Direct
   0.7758142080351224   0.2439988368770502   0.2496378359047868 Cs
   0.2188538035228495   0.7546346326729672   0.7505319214753297 Cs
   0.2153980723471241   0.7613612559103574   0.2250645192886256 Rb
   0.7887556468525279   0.2452875563450974   0.7696761932039237 Rb
   0.2321033265623436   0.2448227081321920   0.7581309918927496 Rb
   0.7709204491900093   0.7602518178873953   0.2379459719005368 Rb
   0.7659721626290510   0.7469230128068257   0.7403623279633196 Rb
   0.2355070108360403   0.2398764816631679   0.2572010242243208 Rb
   0.0003948920786677   0.0001223336185958   0.0007067714932394 Pt
   -0.0008491128348560   0.4989468430544119   0.5029357677114341 Sn
   0.4999054947272898   -0.0000969855448276   0.5015836627958538 Te
   0.5001793947459050   0.5017385422321323   -0.0009431268653860 Te
   0.2101631521948717   -0.0136348978870626   -0.0136298694082144 Cl
   0.7907372358317405   0.0136015557882520   0.0154432461289116 Cl
   0.0166025030384542   0.2073229843717785   -0.0027737887318793 Cl
   -0.0156294457697564   0.7925689505956494   0.0038746946083533 Cl
   0.0155099546131306   0.0007100953594213   0.2085972135220918 Cl
   -0.0149764160069145   -0.0006688326496057   0.7930514646746151 Cl
   0.2162230280201454   0.5154366901865991   0.5374257777260483 Cl
   0.7814675872168975   0.4803293336817963   0.4702674682032379 Cl
   -0.0358522664125090   0.5104446305155135   0.7211616683811137 Cl
   0.0351429135495828   0.4881523478066070   0.2698131416370990 Br
   -0.0174533235664361   0.7325873760013369   0.4860568931655316 Br
   0.0155270315080637   0.2652224914016127   0.5192854288193511 Br
   0.4878405330946459   0.2369979352602739   0.4550410616264338 Br
   0.5096613762262852   0.7631508941896583   0.5478230936711312 Br
   0.5007793375379455   0.0500136848040271   0.7582654046308088 I
   0.5006019643047110   -0.0472256640902127   0.2431738088106354 I
   0.7653762969905420   0.0105718971856141   0.5044478398973122 I
   0.2340866179334928   -0.0117461029478962   0.4974361426463144 I
   0.4845253044255940   0.5445295536892822   0.2567752873451146 I
   0.5176441888656077   0.4586840299459242   0.7413263719415368 I
   0.5055683351456224   0.7598277556140592   -0.0452242143669073 I
   0.4931723102884338   0.2429819439838035   0.0426909650507417 I
   0.7662539907646365   0.5038608370538010   0.0126534163240156 I
   0.2340739257798631   0.4984122952610009   -0.0158153134406326 I
