Random_composition
1.0
  10.8659629580000008  0.0012055610000000  0.0091521530000000
  0.0011936300000000  10.9019184480000000  -0.0169858870000000
  0.0091320330000000  -0.0170933920000000  11.0322646859999995
Cs Rb Pt Sn Te Cl Br I
2 6 1 1 2 9 5 10
Direct
   0.7557674769002608   0.2490707508229247   0.2498121524898544 Cs
   0.2435746802489342   0.7503128962401071   0.7502109252176088 Cs
   0.2457585738750470   0.7506937616057529   0.2497131874322286 Rb
   0.7547044025841972   0.2497336098657201   0.7503069417124623 Rb
   0.2452980967016327   0.2497394988617187   0.7503116791332828 Rb
   0.7542381325267189   0.7506898094201411   0.2497083153727684 Rb
   0.7546834690027734   0.7502684533612024   0.7503080493616046 Rb
   0.2457805227791952   0.2493040205266915   0.2497107626930278 Rb
   0.0000009957384315   -0.0000001408123125   -0.0000897378310936 Pt
   -0.0000020760396266   0.4999954653211757   0.5054458938563116 Sn
   0.4999992920436702   -0.0000023582449101   0.5000218945909402 Te
   0.4999975524435951   0.5000004418830103   -0.0001860998763400 Te
   0.2178183783356796   0.0003534513915990   0.0003446705340095 Cl
   0.7821795119931912   -0.0003530499694111   -0.0003484890494870 Cl
   0.0003408417546222   0.2181489599677591   -0.0004339694513297 Cl
   -0.0003502534748949   0.7818564519915885   0.0002840514623546 Cl
   0.0003782008120964   -0.0003930556195202   0.2191136571729970 Cl
   -0.0003813078536500   0.0003945807470217   0.7810753673293257 Cl
   0.2303479438529074   0.4996294096379062   0.5005897362195149 Cl
   0.7696561286083138   0.5003588001733095   0.5012873770524027 Cl
   -0.0003782847146528   0.4996427251695466   0.7297432182900845 Cl
   0.0005904012060480   0.5005795739643076   0.2614111849850242 Br
   -0.0005636298292897   0.7392477388241949   0.5006544072489729 Br
   0.0005417400755509   0.2607702824048710   0.5017731729629960 Br
   0.4995232088822590   0.2507587966442688   0.5004364747299278 Br
   0.5004760051146920   0.7492438843163693   0.4995543794354900 Br
   0.5008936956411505   0.0008733475791626   0.7672568434281354 I
   0.4990938964405637   -0.0008836616927653   0.2327262152963858 I
   0.7709465418251725   -0.0010013472303229   0.5009431270749601 I
   0.2290539422034060   0.0009974369446352   0.4990299600600910 I
   0.4990535112694788   0.5009340860259300   0.2699401691720216 I
   0.5009510566807651   0.4990643220657729   0.7302509954903095 I
   0.5008487107209093   0.7704963962307110   0.0007417987986000 I
   0.4991525264991268   0.2295023134703700   -0.0007450890786224 I
   0.7718703664858103   0.5009435376219800   -0.0013963864904698 I
   0.2281527978924129   0.4990289905888567   0.0004920440983496 I
