Random_composition
1.0
  10.9348993530000005  -0.0792287830000000  -0.0131417130000000
  -0.0831750780000000  11.4141853429999998  0.0147814880000000
  -0.0146273360000000  0.0142548310000000  11.4293431830000003
Cs Rb Pt Sn Te Cl Br I
2 6 1 1 2 9 5 10
Direct
   0.7608744080993132   0.2512832589324855   0.2553143086090999 Cs
   0.2382788410727528   0.7463138344054853   0.7417915121987332 Cs
   0.2279480309742111   0.7627209450525063   0.2351352509129864 Rb
   0.7742859039426352   0.2475074104271771   0.7562540363796878 Rb
   0.2292437105456501   0.2433920917403183   0.7583572230694555 Rb
   0.7713457014508744   0.7649893566897987   0.2337788865077089 Rb
   0.7702941934357920   0.7547112612824030   0.7544989324137252 Rb
   0.2330182465159505   0.2344617530258535   0.2358391485995390 Rb
   0.0001031156284786   -0.0004147099198513   0.0008239743084893 Pt
   -0.0006712803035511   0.5006911697869632   0.5089505253776223 Sn
   0.4993825689459453   -0.0003050846978220   0.4986215883761945 Te
   0.5004156783008397   0.4991965820447888   -0.0017527296837147 Te
   0.2146854093817912   -0.0081322747070806   -0.0075374811539266 Cl
   0.7853647517697655   0.0073905848189711   0.0102413404211506 Cl
   0.0112602908577120   0.2056217071797119   -0.0008514413409987 Cl
   -0.0110501518335865   0.7937577970336359   0.0025182427601831 Cl
   0.0097780859969093   -0.0001659705779729   0.2068859877800353 Cl
   -0.0099012225552541   -0.0004067854019415   0.7954259267838424 Cl
   0.2238515925094509   0.5138770162405230   0.5231898133331532 Cl
   0.7745697717764124   0.4858623606312245   0.4984404889914695 Cl
   -0.0136945588049611   0.5056154844235617   0.7265007400576977 Cl
   0.0133300916925752   0.4963860744310173   0.2759395535631208 Br
   -0.0126962336807684   0.7325651043627223   0.5008979655066002 Br
   0.0104401357598283   0.2684939176991464   0.5154616820333248 Br
   0.5034530008063778   0.2388402166442765   0.4855524707057299 Br
   0.4948445644564711   0.7606947718158310   0.5096389889900499 Br
   0.5026883873142712   0.0127836759904178   0.7556836019770488 I
   0.4967161125736834   -0.0129835803742239   0.2400032594446436 I
   0.7703234727113725   -0.0023097365262234   0.4998692768133920 I
   0.2283265521774672   0.0023737793800433   0.4970439178409938 I
   0.4950654267395511   0.5074276975720313   0.2567300171453697 I
   0.5058861724632633   0.4912679329900627   0.7399249812020369 I
   0.5060817561594874   0.7574125819771820   -0.0092144318454105 I
   0.4954965204116832   0.2409983049396252   0.0033859653080349 I
   0.7722342054863338   0.5006588123436558   0.0007505241493922 I
   0.2284249272926360   0.4974263179109043   -0.0040939190960820 I
