Random_composition
1.0
  10.9356169879999996  -0.0834117640000000  -0.0146568740000000
  -0.0875576300000000  11.4128905560000007  0.0153187870000000
  -0.0162106490000000  0.0147821430000000  11.4317987799999994
Cs Rb Pt Sn Te Cl Br I
2 6 1 1 2 9 5 10
Direct
   0.7606764146055234   0.2519651787988233   0.2562789455832434 Cs
   0.2385253632176630   0.7457301250368188   0.7407261550180612 Cs
   0.2275834486505058   0.7629941283776197   0.2343810951329996 Rb
   0.7746316153207287   0.2477710069137747   0.7563182569158626 Rb
   0.2291996258292317   0.2431798056039877   0.7585800185324708 Rb
   0.7716442284081357   0.7656508977215506   0.2330045428957463 Rb
   0.7704949632521180   0.7546902347951392   0.7543757788777502 Rb
   0.2329146982316674   0.2338198743132382   0.2352291197810742 Rb
   -0.0000121259822671   -0.0003299656829268   0.0010046430282794 Pt
   -0.0007419476455103   0.5007119229970666   0.5092452148698591 Sn
   0.4993402290979109   -0.0003152688593356   0.4985054151169658 Te
   0.5004387880828862   0.4991652843434319   -0.0017776501142201 Te
   0.2147844652901478   -0.0087738393920190   -0.0080894991556409 Cl
   0.7853891463145020   0.0079539851153242   0.0110087228420160 Cl
   0.0120480286618603   0.2057662341234631   -0.0008498664874404 Cl
   -0.0117920031765934   0.7934674494756249   0.0026550683605789 Cl
   0.0104682453892296   -0.0001207644400558   0.2071043522792312 Cl
   -0.0105841078489530   -0.0005300479517650   0.7953204184859287 Cl
   0.2235509849565732   0.5147970673744841   0.5245649094600098 Cl
   0.7747189640053536   0.4848027105613447   0.4979249966102645 Cl
   -0.0147861694915418   0.5060717400140228   0.7269093023508262 Cl
   0.0143483593675126   0.4960095539301503   0.2762839075609355 Br
   -0.0136124473250427   0.7326619548170396   0.5008649208961916 Br
   0.0111827496488195   0.2684141804204416   0.5162382786880138 Br
   0.5035425670377629   0.2387660254119995   0.4844261922945241 Br
   0.4946208581139160   0.7607513326430808   0.5104468614492550 Br
   0.5028302578924331   0.0137489927699485   0.7553849982864734 I
   0.4966006031716605   -0.0138926452183887   0.2399903535515150 I
   0.7702948437743218   -0.0022872594706643   0.4996497281339214 I
   0.2282782120577796   0.0023635432361627   0.4969663784071325 I
   0.4946748292068769   0.5080454555960690   0.2566960635850224 I
   0.5063580140946105   0.4905662307648329   0.7399138935870070 I
   0.5064331055605337   0.7574673211082230   -0.0100903415598685 I
   0.4952627652146067   0.2408655458920658   0.0039660631564653 I
   0.7722852146288252   0.5005242857815387   0.0012703042137226 I
   0.2284069251100103   0.4975284071153442   -0.0044265824781237 I
