Random_composition
1.0
  10.9194533719999995  -0.0157589590000000  0.0078746780000000
  -0.0165509450000000  11.4283943249999993  0.0067948170000000
  0.0074011100000000  0.0064202310000000  11.3889139529999994
Cs Rb Pt Sn Te Cl Br I
2 6 1 1 2 9 5 10
Direct
   0.7667362516467751   0.2442733579875510   0.2462071816253588 Cs
   0.2316535864619788   0.7531420877342113   0.7532218063407397 Cs
   0.2314957846243485   0.7574780985376571   0.2444974236936053 Rb
   0.7703577880633772   0.2457290609808660   0.7540898132969907 Rb
   0.2303935971550791   0.2456370748540055   0.7543982421057716 Rb
   0.7681441735727059   0.7571350403082155   0.2441274496766195 Rb
   0.7684134191134087   0.7542966081096989   0.7539168106609521 Rb
   0.2334565077048538   0.2426814795833547   0.2444440831163212 Rb
   -0.0000366649167685   -0.0000166822483182   0.0000114499132908 Pt
   -0.0000451594274100   0.5002864426316104   0.5044283436066703 Sn
   0.4998572680652778   -0.0000991042128735   0.4999558765533696 Te
   0.5001606594719978   0.4997876073317608   -0.0012217643868168 Te
   0.2149323467594306   -0.0008999864520651   -0.0011666088473494 Cl
   0.7850084262963912   0.0008322681500142   0.0014683275661636 Cl
   0.0027050780890508   0.2059983180506110   -0.0011494531038168 Cl
   -0.0028057871621624   0.7939687824152321   0.0011614120665764 Cl
   0.0024251496176130   -0.0010631379639622   0.2068738192490206 Cl
   -0.0024611500423187   0.0010366994900560   0.7933366055681512 Cl
   0.2252799697698111   0.5023581336651312   0.5067315974998039 Cl
   0.7745920063964420   0.4976163335154964   0.5032656449156865 Cl
   -0.0027003620142591   0.5008753409094011   0.7237343211315466 Cl
   0.0033981319853354   0.5005086504822827   0.2699794193552522 Br
   -0.0033806702099869   0.7330959605464700   0.5010737101311363 Br
   0.0026435927638929   0.2673909777675753   0.5065436734006764 Br
   0.5008680588889995   0.2394224861545521   0.4982028151895950 Br
   0.4988883924412837   0.7604223184601024   0.5008936328430380 Br
   0.5010465002134591   0.0028548684279497   0.7584476498361744 I
   0.4985419745887498   -0.0031639739983028   0.2407460142749347 I
   0.7714559271574947   -0.0024013669394443   0.5017125753528244 I
   0.2282579450145445   0.0022907576368591   0.4980235165802674 I
   0.4982983707932177   0.5022839756161612   0.2590759000605591 I
   0.5017828571380187   0.4975215600482304   0.7390703001494558 I
   0.5018924644185067   0.7579179733556655   -0.0009598944660571 I
   0.4983788351714181   0.2417100124707797   -0.0005300723296102 I
   0.7723363156686884   0.5016754440171017   -0.0036729307817861 I
   0.2280278667676010   0.4974154164398740   -0.0009408704638327 I
