Random_composition
1.0
  11.2125457599999994  -0.0873961570000000  -0.0148040360000000
  -0.0923540330000000  11.3165614940000001  0.0507535920000000
  -0.0156978640000000  0.0499945150000000  11.3069381220000000
Cs Rb Pt Sn Te Cl Br I
2 6 1 1 2 9 5 10
Direct
   0.7758434923327424   0.2446545260451364   0.2551830113389393 Cs
   0.2210968830128195   0.7566593774506005   0.7464947498444892 Cs
   0.2188592264636771   0.7632546308442002   0.2210140410054261 Rb
   0.7864786841239669   0.2414467808208198   0.7752424814543007 Rb
   0.2312331194945768   0.2463161528186577   0.7570229589607215 Rb
   0.7710462956426205   0.7582433444684328   0.2392072013301227 Rb
   0.7671266849347866   0.7466102677385821   0.7415396925039014 Rb
   0.2347162767962049   0.2385943359776887   0.2517441236448782 Rb
   0.0000803424668177   0.0002448453211471   0.0005243473121784 Pt
   -0.0016154295577859   0.4994008458975642   0.5042240115608844 Sn
   0.4999680879130952   0.0003847707887022   0.5006750683509837 Te
   0.5004497399954760   0.5008401074478817   -0.0012099436961580 Te
   0.2088038558199132   -0.0147313794693866   -0.0112569104389689 Cl
   0.7916734044305811   0.0155323590673904   0.0127277284983562 Cl
   0.0183876911015842   0.2078919202392314   -0.0048942559923646 Cl
   -0.0178611918235884   0.7923177431734073   0.0055313481091903 Cl
   0.0133039458542180   0.0021681201679241   0.2083638281899636 Cl
   -0.0134051782573175   -0.0021797060561097   0.7927913003900620 Cl
   0.2150382221266025   0.5122213089725618   0.5408507852672972 Cl
   0.7816227104598042   0.4855969268646179   0.4697182672387428 Cl
   -0.0371183335698195   0.5098033768527498   0.7221739482571978 Cl
   0.0356899256027118   0.4889874117724343   0.2716907490079944 Br
   -0.0128684543154187   0.7335200824604058   0.4878580440107983 Br
   0.0091129950781595   0.2653352135798979   0.5201406543908508 Br
   0.4981610180773792   0.2377250195886988   0.4490003695266546 Br
   0.5004014800881544   0.7631315277288437   0.5514265867603544 Br
   0.4989966017875380   0.0529242724744436   0.7570750785368697 I
   0.5017028407202528   -0.0497173742982359   0.2425590847542952 I
   0.7647008557349176   0.0010801169217963   0.5060296410441406 I
   0.2346329460189998   -0.0017887941045667   0.4948346087982426 I
   0.4841353625740729   0.5443614472979422   0.2564636710001560 I
   0.5170674634945004   0.4572437350982491   0.7411385675723492 I
   0.5071828869529803   0.7599579759555063   -0.0461117092625897 I
   0.4947188747384340   0.2412661502204417   0.0430707860098970 I
   0.7657415664551904   0.5027745204620573   0.0126832261121109 I
   0.2348941777954152   0.4979255433356234   -0.0155253461294710 I
