Random_composition
1.0
  11.2263540089999996  -0.0322479090000000  -0.0276283830000000
  -0.0370244560000000  11.2903919770000005  0.0428746770000000
  -0.0282891480000000  0.0414645560000000  11.3370234459999999
Cs Rb Pt Sn Te Cl Br I
2 6 1 1 2 9 5 10
Direct
   0.7768946672740666   0.2414716048938291   0.2550167899117892 Cs
   0.2225193795465863   0.7617289047445723   0.7482986173838904 Cs
   0.2176823982286068   0.7644046284423384   0.2219225022434383 Rb
   0.7842830818499976   0.2367354449315121   0.7803175639326346 Rb
   0.2259787679430377   0.2521012683072541   0.7484755330989932 Rb
   0.7751120277869999   0.7492250183533078   0.2496495067502032 Rb
   0.7604553773081900   0.7389704937811529   0.7381379310931772 Rb
   0.2391712482590672   0.2415583197590915   0.2441761890233949 Rb
   0.0008942146485392   0.0008528470232321   0.0009612876092258 Pt
   -0.0019524896983879   0.5001498683970249   0.5059495836035774 Sn
   0.4984733112984985   0.0002475590978125   0.4987315607553411 Te
   0.5021014602569134   0.5007347286249502   -0.0014383482914462 Te
   0.2091752114574237   -0.0194081144469525   -0.0055304384615856 Cl
   0.7929762277595752   0.0216319614693931   0.0081636231953119 Cl
   0.0233037417762835   0.2085018254385845   -0.0047230742682599 Cl
   -0.0212156709585241   0.7932847263380191   0.0065195259812626 Cl
   0.0102324109041566   0.0031129029576377   0.2084691146239544 Cl
   -0.0084224582077208   -0.0014817451907059   0.7936387247765495 Cl
   0.2136397379212106   0.4930859059653495   0.5492951171190327 Cl
   0.7818023334568622   0.5099929140960409   0.4640489788076674 Cl
   -0.0417697952974329   0.5123961470957700   0.7220543547242229 Cl
   0.0400251209728786   0.4875209975660165   0.2748749298185494 Br
   0.0075302089691206   0.7349487341096514   0.4901425303015959 Br
   -0.0128695410683015   0.2660018955097451   0.5218750510855178 Br
   0.5015969297346559   0.2378830229503193   0.4467159460714018 Br
   0.4936235128318124   0.7621502172855085   0.5494723641306940 Br
   0.4946222934823631   0.0535088608055275   0.7544882904920645 I
   0.5035147098183191   -0.0526713009857812   0.2423016566341438 I
   0.7627183038644791   -0.0076049876004410   0.5071647564454755 I
   0.2339476316425728   0.0073175589981653   0.4909304354269648 I
   0.4828951198108638   0.5418474816555482   0.2559269714294741 I
   0.5211074248505062   0.4587449485803081   0.7409783400409271 I
   0.5080122440128385   0.7600418960755639   -0.0450648264412552 I
   0.4983088002984321   0.2404647709126467   0.0402246338447024 I
   0.7667599684535228   0.5013320573935504   0.0154581922567021 I
   0.2368725107264522   0.4992164497065305   -0.0176236152758621 I
