Random_composition
1.0
  11.0757211469999994  0.0012025800000000  0.0112211450000000
  0.0011514660000000  11.3017210939999995  -0.0071658590000000
  0.0111166450000000  -0.0073938950000000  11.3630194840000005
Cs Rb Pt Sn Te Cl Br I
2 6 1 1 2 9 5 10
Direct
   0.7614287348654292   0.2479744537700647   0.2493670675932660 Cs
   0.2376098300231658   0.7511205180708761   0.7506663331325840 Cs
   0.2409841108401493   0.7516026688424053   0.2493326501013078 Rb
   0.7596731997881875   0.2489945269975802   0.7506552170006645 Rb
   0.2404067779012275   0.2490241239487844   0.7506602311521657 Rb
   0.7589485978375723   0.7515563921766762   0.2493174704894314 Rb
   0.7594458530455283   0.7510056997322105   0.7506534474332514 Rb
   0.2411998494598923   0.2484146809235158   0.2493275286627380 Rb
   0.0000067717189169   -0.0000020645766797   -0.0004497124015409 Pt
   -0.0000014694283023   0.4999918453401518   0.5028991541904783 Sn
   0.4999909733383365   -0.0000127063001867   0.5000985385741440 Te
   0.5000196816763622   0.4999978130894065   -0.0003861543604863 Te
   0.2146736444022953   0.0004790876586688   0.0003620999672567 Cl
   0.7853099597484592   -0.0004792877687059   -0.0003217024701929 Cl
   0.0005730712913060   0.2076918269798453   -0.0005692272355577 Cl
   -0.0006009970372206   0.7923229925421805   0.0003726490769357 Cl
   0.0005386544227413   -0.0005436769255905   0.2091134370678711 Cl
   -0.0005422742238833   0.0005459942879755   0.7911963901949584 Cl
   0.2228536488951136   0.4994994391081358   0.5019474513331914 Cl
   0.7771839641433156   0.5004294431183559   0.5029310317492990 Cl
   -0.0007261383906180   0.4996103281668265   0.7229898969053601 Cl
   0.0011639293370028   0.5009356695792113   0.2673318107069801 Br
   -0.0010764486818137   0.7354649484686236   0.5015526308946099 Br
   0.0009243985441912   0.2646076196210484   0.5034731988392697 Br
   0.4992085311414126   0.2429746335583654   0.5006670488123472 Br
   0.5007788866093308   0.7570307017541403   0.4993413476723613 Br
   0.5015235753488602   0.0013141913952916   0.7595113042534610 I
   0.4984126300596589   -0.0013716495745938   0.2403848215174652 I
   0.7689426566087665   -0.0018620949883320   0.5017432424076425 I
   0.2310521235614785   0.0018303617508001   0.4982619676667258 I
   0.4982607244670188   0.5016737326091232   0.2631636662777398 I
   0.5017276568767380   0.4983253696996650   0.7367848820760735 I
   0.5015027216356587   0.7603146133009464   0.0009197267127722 I
   0.4984817822757588   0.2396690797622798   -0.0010064315688837 I
   0.7697136999495072   0.5017327012018151   -0.0028814280648926 I
   0.2304075600827011   0.4981345064607501   0.0005873548844078 I
