Random_composition
1.0
  11.2294498500000000  -0.0333743800000000  -0.0293262200000000
  -0.0381752540000000  11.2894270530000007  0.0435151890000000
  -0.0300182380000000  0.0421081970000000  11.3352224970000002
Cs Rb Pt Sn Te Cl Br I
2 6 1 1 2 9 5 10
Direct
   0.7771487396922768   0.2414398608284726   0.2550372994003396 Cs
   0.2223479531181021   0.7619276931640581   0.7481586885181829 Cs
   0.2178267807383531   0.7642583312015113   0.2218369503582552 Rb
   0.7842352664115283   0.2368919885141205   0.7800985166936124 Rb
   0.2261132794767090   0.2522314264594336   0.7485027445936981 Rb
   0.7750710110490787   0.7492936226217614   0.2494008609119909 Rb
   0.7607833837928043   0.7389536091588720   0.7385214712050192 Rb
   0.2389439488860761   0.2420605311818779   0.2441305421028368 Rb
   0.0008377133833222   0.0008017101628308   0.0008812954840861 Pt
   -0.0020283109318709   0.5001391217325334   0.5060339018856489 Sn
   0.4985285807166258   0.0002690000698381   0.4987443567818573 Te
   0.5020629787151560   0.5006840392138910   -0.0014224468229263 Te
   0.2091517597810688   -0.0194325789055399   -0.0056285403442523 Cl
   0.7928825132580666   0.0215291474750105   0.0080797180753015 Cl
   0.0230635071984035   0.2084531198435575   -0.0049054627234954 Cl
   -0.0210583657223524   0.7932310946640029   0.0064740534866807 Cl
   0.0102566131922136   0.0030792592413293   0.2084923162092795 Cl
   -0.0085670136803435   -0.0015950113083809   0.7934522830470213 Cl
   0.2134959567278001   0.4933008115245084   0.5493412196361201 Cl
   0.7819190155550038   0.5096217954659845   0.4642321261639835 Cl
   -0.0414362790317885   0.5121840534599803   0.7222484646280900 Cl
   0.0397261647844276   0.4878239480337600   0.2748386516255261 Br
   0.0071674849034425   0.7349995064999939   0.4903059074729048 Br
   -0.0125636631534645   0.2656339134066667   0.5218938090425077 Br
   0.5016949823058747   0.2379082496928126   0.4466096890743684 Br
   0.4937309813231295   0.7621920848206492   0.5496797555057135 Br
   0.4947515422059182   0.0536813773454187   0.7544856962053069 I
   0.5033915913008796   -0.0527648182892305   0.2423506591352836 I
   0.7627055575696572   -0.0076881969576153   0.5072685450896085 I
   0.2340626060508756   0.0074048813818316   0.4907554261187405 I
   0.4829802388047161   0.5418286395265141   0.2561084451454355 I
   0.5210185327284592   0.4587383185471857   0.7408506909947556 I
   0.5080394653278194   0.7598992494360032   -0.0451608499495058 I
   0.4982091668565110   0.2405273842371752   0.0403974423236674 I
   0.7668127648864117   0.5012269599610844   0.0153580341271060 I
   0.2366924140305328   0.4992639918728322   -0.0174539382189818 I
