Random_composition
1.0
  11.1706081899999994  -0.0741341860000000  -0.0000740260000000
  -0.0784582790000000  11.3402754280000000  0.0314986380000000
  -0.0008971890000000  0.0308734200000000  11.3137632539999995
Cs Rb Pt Sn Te Cl Br I
2 6 1 1 2 9 5 10
Direct
   0.7758324449304158   0.2440308200021070   0.2496968276504895 Cs
   0.2188734428736194   0.7546198488109531   0.7504538069486612 Cs
   0.2153968193825607   0.7614447325838057   0.2249597605886307 Rb
   0.7887887294303605   0.2452153354996543   0.7698132130094096 Rb
   0.2320617101927439   0.2448465253991733   0.7581495788767239 Rb
   0.7709589070372510   0.7602309851565419   0.2379279793975282 Rb
   0.7660591451812522   0.7469230364358197   0.7403849154253948 Rb
   0.2354629752618944   0.2397955275808598   0.2571314365126380 Rb
   0.0004234072163903   0.0002422255739773   0.0007930519108486 Pt
   -0.0008378668346562   0.4989815972908659   0.5029937934455513 Sn
   0.4999068241333973   -0.0000860017580395   0.5015793231341031 Te
   0.5001691699920706   0.5017275956090509   -0.0009551826517053 Te
   0.2101038085082867   -0.0136437562105385   -0.0136095023080139 Cl
   0.7907708564427305   0.0136070391884397   0.0154042408780433 Cl
   0.0166441201493105   0.2073388980212902   -0.0027956799240315 Cl
   -0.0156966106934590   0.7924698305768745   0.0038932331121443 Cl
   0.0155144266168252   0.0007452633136101   0.2085502074526276 Cl
   -0.0149977843236599   -0.0007120982576136   0.7930297919860694 Cl
   0.2161044782151496   0.5153859936656492   0.5374075719991516 Cl
   0.7814808770700983   0.4803171509338136   0.4701670341175190 Cl
   -0.0359095830998444   0.5104752670901872   0.7212593973297203 Cl
   0.0352309723408737   0.4881476335740671   0.2699151956646955 Br
   -0.0174763973968335   0.7326434771180536   0.4860355755348921 Br
   0.0155459006323628   0.2652529058596716   0.5192645376827786 Br
   0.4879960490683560   0.2369988868131956   0.4549070779286254 Br
   0.5095298511440350   0.7631663560174774   0.5479440287459623 Br
   0.5007730674242218   0.0500829210121653   0.7582666645773305 I
   0.5006037847731454   -0.0472788463981646   0.2431539546305169 I
   0.7653280934327896   0.0104214090622155   0.5044898205703557 I
   0.2341274797334230   -0.0115975889612803   0.4974085557064795 I
   0.4844888591113872   0.5445557169715969   0.2567053098221536 I
   0.5176762417498760   0.4586298247038382   0.7413812644269003 I
   0.5056079384161988   0.7598794044006919   -0.0453109833254094 I
   0.4931473698853061   0.2429023389332323   0.0427439926067762 I
   0.7661904003821007   0.5038529409286199   0.0126249801602073 I
   0.2341223134838731   0.4983894057339338   -0.0157632126757485 I
