Random_composition
1.0
  10.9227041770000000  -0.0398537530000000  -0.0002311720000000
  -0.0417381830000000  11.4448649749999998  0.0131737960000000
  -0.0010809820000000  0.0127266010000000  11.4303900869999993
Cs Rb Pt Sn Te Cl Br I
2 6 1 1 2 9 5 10
Direct
   0.7632792761978107   0.2464203158026083   0.2484797225823845 Cs
   0.2355324775150451   0.7508933405846064   0.7499221170567276 Cs
   0.2304917195542056   0.7600370461494782   0.2408019926952277 Rb
   0.7716926495456029   0.2459111923328413   0.7554614273114152 Rb
   0.2298997026079955   0.2448299402368993   0.7564280607116151 Rb
   0.7690791584075571   0.7600908922506768   0.2398959691086909 Rb
   0.7688036517929324   0.7546766609224723   0.7548933766761339 Rb
   0.2336660844623271   0.2394740211113709   0.2408053630895000 Rb
   0.0000391378971241   -0.0000711107023793   0.0004252650879344 Pt
   -0.0002201519688853   0.5004648871777061   0.5058827286528622 Sn
   0.4996813855587761   -0.0001915969479771   0.4995033409137902 Te
   0.5002183896099012   0.4995231986206900   -0.0015699359421463 Te
   0.2148986435802504   -0.0034025981580652   -0.0033949406819367 Cl
   0.7850166177655581   0.0031017410477448   0.0044670927036713 Cl
   0.0057297120662716   0.2059301245867337   -0.0011094596777572 Cl
   -0.0057592530524695   0.7937961350431030   0.0016413578303548 Cl
   0.0050180286625057   -0.0007898981956623   0.2066746233509723 Cl
   -0.0051074110062537   0.0005959444358568   0.7940805956204597 Cl
   0.2246770929663683   0.5066629602227745   0.5127101717411584 Cl
   0.7747405830428389   0.4935461976445185   0.5018408976199028 Cl
   -0.0060982535733162   0.5023532758042311   0.7245886297527852 Cl
   0.0063656181713444   0.4991785490328242   0.2728616758869281 Br
   -0.0062721128064195   0.7324259016448359   0.5008787694097315 Br
   0.0051279096164154   0.2683296651850094   0.5097653029170173 Br
   0.5022390532972341   0.2389841292835427   0.4938490928546742 Br
   0.4970385372874906   0.7607016018391466   0.5038055158084860 Br
   0.5015808665425860   0.0060135561643259   0.7571182316806908 I
   0.4977715200576544   -0.0064515333238043   0.2408334309738532 I
   0.7708543131179804   -0.0023555496189826   0.5013424028267305 I
   0.2284437739190929   0.0022963423819999   0.4976201612512840 I
   0.4976117668732318   0.5035561020359465   0.2577358485687344 I
   0.5027706181846026   0.4958331971848838   0.7396557909878448 I
   0.5033918787214307   0.7572038704574631   -0.0034573517536707 I
   0.4973371680034007   0.2419040564282336   0.0001170717470409 I
   0.7719470048409962   0.5014963145810898   -0.0025631809052047 I
   0.2285132754824991   0.4970283580807694   -0.0019907390868953 I
