Random_composition
1.0
  10.9606426549999991  -0.0201586670000000  -0.0015472210000000
  -0.0217301060000000  11.3901455299999999  -0.0000240210000000
  -0.0024478680000000  -0.0004267240000000  11.3687691460000000
Cs Rb Pt Sn Te Cl Br I
2 6 1 1 2 9 5 10
Direct
   0.7715327474860449   0.2486448865266961   0.2539606238186092 Cs
   0.2248692769137331   0.7566868753675891   0.7512260992517236 Cs
   0.2271246247802505   0.7540763078462718   0.2351810905226088 Rb
   0.7748925842165181   0.2509180402773034   0.7550390765390329 Rb
   0.2367665372024814   0.2412002337882038   0.7566177141573627 Rb
   0.7671638487334759   0.7640005393015492   0.2397968759030825 Rb
   0.7659764583936810   0.7508920392454788   0.7464777464520437 Rb
   0.2347620505751234   0.2410151884587941   0.2474233562205974 Rb
   0.0001929498076662   -0.0003095513453926   0.0006456539847011 Pt
   -0.0004327385667846   0.4984753311667107   0.5045147131298545 Sn
   0.4995282715510363   -0.0000655915888961   0.4993348713614790 Te
   0.5007344901529378   0.5008148455648834   -0.0003873086832408 Te
   0.2141236624375893   -0.0106607925690892   -0.0103730630766894 Cl
   0.7866129349592387   0.0098315018323206   0.0121118916609186 Cl
   0.0113716383178347   0.2062255556431141   -0.0003428209130000 Cl
   -0.0108256612503412   0.7928970225120722   0.0016582530832360 Cl
   0.0110661043012494   -0.0002808054100740   0.2074118213398135 Cl
   -0.0106549493378593   -0.0003964817935052   0.7939657661261073 Cl
   0.2222841548859227   0.5095672229793237   0.5246360521908577 Cl
   0.7758976585372844   0.4847575513121394   0.4874197073006762 Cl
   -0.0210374650485618   0.5069535241413314   0.7229594974065183 Cl
   0.0195080030407091   0.4922254080606009   0.2713136283556038 Br
   -0.0139079054747339   0.7307712324686505   0.4945861740213718 Br
   0.0107918671534908   0.2658339220902264   0.5144068815099266 Br
   0.4908533185830440   0.2400951764220577   0.4781823921370937 Br
   0.5075001527425039   0.7603952605230263   0.5205966806380941 Br
   0.5016099981762415   0.0235927809222135   0.7579120094347968 I
   0.4985153483164640   -0.0215992061962584   0.2401861414823389 I
   0.7706192674764012   0.0043738350875043   0.5014036568227046 I
   0.2286373990697415   -0.0060367396549843   0.4959449466489063 I
   0.4884829668124320   0.5237692498907426   0.2596875998317106 I
   0.5118719018857445   0.4788011069540040   0.7396652506745602 I
   0.5059600529281867   0.7590420656683990   -0.0231739189747014 I
   0.4967819692390310   0.2427154345280450   0.0226360882570322 I
   0.7717153422734446   0.5014729668058165   0.0077771004873321 I
   0.2291110607325040   0.4993039044130654   -0.0104016115779799 I
