Random_composition
1.0
  11.2081250319999999  -0.0796601160000000  -0.0118128790000000
  -0.0845139670000000  11.3171267580000006  0.0349923640000000
  -0.0127650140000000  0.0342021780000000  11.3165273230000007
Cs Rb Pt Sn Te Cl Br I
2 6 1 1 2 9 5 10
Direct
   0.7758550131732151   0.2447713173675809   0.2525182746256577 Cs
   0.2200937675083630   0.7552956815209813   0.7477806678759008 Cs
   0.2173937899737149   0.7629107592023784   0.2224959940169434 Rb
   0.7877550824163261   0.2430256051567595   0.7730818267236779 Rb
   0.2319542863199377   0.2452353651320531   0.7580743136032327 Rb
   0.7709416363563578   0.7595383358013801   0.2380455524437232 Rb
   0.7672713531732384   0.7472356273401192   0.7411987708934327 Rb
   0.2345698768818549   0.2382945668514107   0.2545465029272358 Rb
   0.0001618495093869   0.0000879389191330   0.0005168400650715 Pt
   -0.0013811665530207   0.4989458612394518   0.5030796309467670 Sn
   0.4999547574331901   0.0002089274169447   0.5011960323431818 Te
   0.5001225569255489   0.5012260321673218   -0.0011320784325510 Te
   0.2090485978642907   -0.0136689476206724   -0.0126878344671912 Cl
   0.7914894047187592   0.0140806014275680   0.0142735532223689 Cl
   0.0179630309056739   0.2079063465252431   -0.0038459624761832 Cl
   -0.0172845015130993   0.7923248413736028   0.0047497345683264 Cl
   0.0145446681812110   0.0016446711014353   0.2083399081875285 Cl
   -0.0144212743339957   -0.0016654611811266   0.7932078159181717 Cl
   0.2152734371176661   0.5149813050001341   0.5388545807151607 Cl
   0.7817934590930465   0.4820902857919516   0.4704637386376733 Cl
   -0.0370004768254590   0.5107178845664002   0.7208166833254117 Cl
   0.0363540939261051   0.4885660407517392   0.2710984808512250 Br
   -0.0163376898166338   0.7331762768937009   0.4873863930394919 Br
   0.0131648930189321   0.2648024673481420   0.5197221093620414 Br
   0.4935670626915366   0.2379518736347429   0.4513190136547379 Br
   0.5049248398500112   0.7627539776693097   0.5505181822471521 Br
   0.4999805152648477   0.0515642464684352   0.7572439503619419 I
   0.5008913646506302   -0.0483136450240992   0.2433385701405789 I
   0.7644417999075881   0.0051463577140684   0.5056268598965893 I
   0.2348207930667180   -0.0063022859339501   0.4961561335240204 I
   0.4835784174445783   0.5448722939980737   0.2567992813290704 I
   0.5179685515091732   0.4575402175297659   0.7409117697217388 I
   0.5069756434290157   0.7595890158386039   -0.0461794469703373 I
   0.4934603156253987   0.2422678280545001   0.0430787333481890 I
   0.7653673466978904   0.5035898834449877   0.0119497251664850 I
   0.2347421265159201   0.4976074942113621   -0.0145459360041733 I
