Random_composition
1.0
  10.9418830049999993  -0.0654569830000000  -0.0138127670000000
  -0.0687493920000000  11.4245864239999992  0.0235538710000000
  -0.0152441010000000  0.0230173680000000  11.4365015710000009
Cs Rb Pt Sn Te Cl Br I
2 6 1 1 2 9 5 10
Direct
   0.7621616988613998   0.2517204791300625   0.2557389208676924 Cs
   0.2370226664243974   0.7472012689183526   0.7428875346032074 Cs
   0.2275313786916734   0.7616962548426430   0.2345544156084749 Rb
   0.7744733306966000   0.2481817653232008   0.7559796083360892 Rb
   0.2300468956495698   0.2428537139648850   0.7583374500738814 Rb
   0.7710832749557175   0.7654822032821254   0.2339623448599495 Rb
   0.7702249134161956   0.7543589371730099   0.7536798566118731 Rb
   0.2330920138311888   0.2346568281681477   0.2363557205178011 Rb
   -0.0000111395992371   -0.0002718786203647   0.0011022820087945 Pt
   -0.0008738442047483   0.5004758215793723   0.5084649139207909 Sn
   0.4994009765838316   -0.0002783790649893   0.4983040163859660 Te
   0.5004780098475141   0.4993756164263308   -0.0013080261143090 Te
   0.2136231739578635   -0.0084817112743612   -0.0076823751733566 Cl
   0.7865835392877510   0.0077669468832220   0.0105672134733680 Cl
   0.0119504286878584   0.2052550358935978   -0.0013753753324713 Cl
   -0.0116747756211010   0.7939147909139072   0.0029396203258206 Cl
   0.0106044549073472   -0.0007495596695933   0.2062592408397056 Cl
   -0.0108030656615642   0.0000160164101592   0.7959156343408568 Cl
   0.2232878107023560   0.5132170920638353   0.5232016046318352 Cl
   0.7747943646309546   0.4849427939341481   0.4972263361061759 Cl
   -0.0151617487841854   0.5059332978851249   0.7267934022534258 Cl
   0.0149170002731556   0.4962936221256490   0.2761846697162003 Br
   -0.0137650838919880   0.7322523389665408   0.5000071440966006 Br
   0.0110356965185534   0.2684195979948222   0.5161088883935283 Br
   0.5022181393186951   0.2393001105745002   0.4848030268509831 Br
   0.4959650888154224   0.7603001242585735   0.5104797654177554 Br
   0.5025755459016842   0.0142051972042202   0.7554545695548315 I
   0.4970571413748581   -0.0139842448614307   0.2402566117374947 I
   0.7706359220795019   -0.0018667375064693   0.4996316878771084 I
   0.2280616502779699   0.0018687726338215   0.4969409666342955 I
   0.4942465698902739   0.5092951399979235   0.2574380830015107 I
   0.5068096847329004   0.4896049500776039   0.7394488865106691 I
   0.5061072487533820   0.7575161453654401   -0.0113139228164334 I
   0.4956391249160883   0.2411229317310696   0.0057899497419143 I
   0.7719118499137183   0.5003305059049180   0.0020817133794060 I
   0.2287506512888238   0.4980761012864051   -0.0052194231269023 I
