Random_composition
1.0
  11.0319690759999993  -0.0524317650000000  0.0017311310000000
  -0.0553442460000000  11.4158854240000007  -0.0126234580000000
  0.0009474190000000  -0.0130311850000000  11.3443194270000003
Cs Rb Pt Sn Te Cl Br I
2 6 1 1 2 9 5 10
Direct
   0.7736669824734509   0.2448009526358644   0.2513126445348040 Cs
   0.2193058758983185   0.7581171683514691   0.7512852990324664 Cs
   0.2230783511085124   0.7555223976175383   0.2325755321315981 Rb
   0.7803517147667435   0.2498165703812307   0.7598792253171960 Rb
   0.2370314022140695   0.2426625799018445   0.7566644225520728 Rb
   0.7671872740726788   0.7618504667978293   0.2403968879090476 Rb
   0.7621133822501290   0.7481025739880132   0.7408628060417274 Rb
   0.2366137033800032   0.2433502042542182   0.2564598370565389 Rb
   0.0005386086272983   -0.0001352026316303   0.0006370907412890 Pt
   -0.0005362652028990   0.4983560435231501   0.5036848566984359 Sn
   0.4996488335873339   -0.0000916998899550   0.5007752048416781 Te
   0.5005714623542493   0.5017449756523416   -0.0002065172939121 Te
   0.2126685775056792   -0.0111597039852877   -0.0113950450755230 Cl
   0.7885077006401577   0.0107521000550647   0.0131908061582776 Cl
   0.0148363124250638   0.2053117389728141   -0.0009673510656281 Cl
   -0.0137289913092886   0.7940124643031847   0.0019302127217034 Cl
   0.0146263026159092   -0.0001201208979724   0.2073357664819407 Cl
   -0.0138726593791482   -0.0003724813288936   0.7938774442434687 Cl
   0.2202001196778701   0.5117607039360407   0.5299655949558101 Cl
   0.7768520716108948   0.4840828925781826   0.4783227413752724 Cl
   -0.0302271512919076   0.5086198218254129   0.7221502286527094 Cl
   0.0286221766939304   0.4866854718714907   0.2704952134521747 Br
   -0.0144946162708473   0.7310484143454998   0.4892046179364001 Br
   0.0152424191812418   0.2656195463086198   0.5136232885592605 Br
   0.4838388005964637   0.2366270965798450   0.4657520001855129 Br
   0.5144326905109082   0.7638257710086039   0.5360120200502608 Br
   0.5019714008603267   0.0386954807171667   0.7584826527401414 I
   0.4981488171461090   -0.0366439243371250   0.2423675641181503 I
   0.7679210340916586   0.0102772340523840   0.5041959898194912 I
   0.2313228332684315   -0.0128996010019739   0.4958082103113241 I
   0.4853847189818311   0.5374217891221441   0.2575354013653615 I
   0.5153119833630478   0.4670494528905531   0.7416305368288018 I
   0.5065290318707776   0.7588929087993637   -0.0340502590600004 I
   0.4954316669974459   0.2444560337138670   0.0342037462762034 I
   0.7692312723186828   0.5040351435122559   0.0103823792269677 I
   0.2316731545800967   0.4979280562169885   -0.0143803675244559 I
