Random_composition
1.0
  11.2260097210000005  -0.0313628840000000  -0.0260215400000000
  -0.0361216500000000  11.2927918930000004  0.0422924050000000
  -0.0266520080000000  0.0408732500000000  11.3419088870000007
Cs Rb Pt Sn Te Cl Br I
2 6 1 1 2 9 5 10
Direct
   0.7766286834001567   0.2415269706876371   0.2550200629104648 Cs
   0.2226805024576058   0.7614975608777586   0.7484215409348109 Cs
   0.2175237279123807   0.7645486094877582   0.2219992884829263 Rb
   0.7843374114632340   0.2365796407692076   0.7805700286916546 Rb
   0.2258245884717840   0.2519510031109334   0.7484666623824006 Rb
   0.7751597898677737   0.7491652402644837   0.2498968101369520 Rb
   0.7601138459273525   0.7390003060214960   0.7377122595473524 Rb
   0.2394024499586823   0.2409958622235336   0.2442240855059354 Rb
   0.0009287512806635   0.0008154011043500   0.0010024487392849 Pt
   -0.0018881036512464   0.5002795701858476   0.5058983368325650 Sn
   0.4984166581550040   0.0002273351909916   0.4987255682276121 Te
   0.5021535108578203   0.5007883800510983   -0.0014673665152225 Te
   0.2093588558369062   -0.0193974946056076   -0.0054322243349406 Cl
   0.7929333445511497   0.0217767251209337   0.0082854092375838 Cl
   0.0235511382426907   0.2086165310914190   -0.0045124730278382 Cl
   -0.0213617897478271   0.7933557712661183   0.0065669024930628 Cl
   0.0102016604492222   0.0031749755133163   0.2085866858158946 Cl
   -0.0082562223478985   -0.0013656388002493   0.7937449512443036 Cl
   0.2138321382027648   0.4928716706531420   0.5492390721256232 Cl
   0.7816931613024931   0.5103112108948836   0.4638203871913499 Cl
   -0.0421185944485536   0.5126122091051113   0.7218912167015361 Cl
   0.0403174235752436   0.4871717213876331   0.2748889528885515 Br
   0.0079025650011752   0.7349221355604977   0.4899319918430845 Br
   -0.0131873985153422   0.2663333985958058   0.5218268831631461 Br
   0.5014871481396966   0.2378175585539441   0.4468420300211788 Br
   0.4935064398254525   0.7621462440623336   0.5492310740638259 Br
   0.4945037840011938   0.0533119506572859   0.7544861402647415 I
   0.5036347193555024   -0.0525526600605815   0.2422535709599558 I
   0.7627592252343001   -0.0075200873422081   0.5070580507714244 I
   0.2338061650522083   0.0072195531684917   0.4911262045663471 I
   0.4827974875329901   0.5418596553816308   0.2557564705408640 I
   0.5212059295243036   0.4587586083160456   0.7410966407707147 I
   0.5079917892783323   0.7601822318655250   -0.0449599102972835 I
   0.4984131834892299   0.2404104335448422   0.0400428135769584 I
   0.7667174909252787   0.5014571045139031   0.0155541139205223 I
   0.2370313144895239   0.4991512693963565   -0.0177970383840497 I
