Random_composition
1.0
  10.9918389249999997  -0.0008391200000000  0.0143210230000000
  -0.0009690290000000  11.4168699759999992  -0.0072686460000000
  0.0141862090000000  -0.0075515240000000  11.3927941710000002
Cs Rb Pt Sn Te Cl Br I
2 6 1 1 2 9 5 10
Direct
   0.7672433076348355   0.2453434065343557   0.2476271898685299 Cs
   0.2312167476236892   0.7528635305573343   0.7523010518302838 Cs
   0.2348038419496694   0.7542065422416790   0.2477644541609079 Rb
   0.7664125063070014   0.2471448953297304   0.7519042711602542 Rb
   0.2338855993562869   0.2472082375951085   0.7519075004378584 Rb
   0.7649790429868475   0.7540484060639586   0.2477246219057854 Rb
   0.7655492139357352   0.7528236720468769   0.7518470387778695 Rb
   0.2356360448698003   0.2459087941200688   0.2477647565984922 Rb
   -0.0000114537543502   0.0000059394391515   -0.0002887608386022 Pt
   0.0000202329538070   0.5000978316803125   0.5034616318223006 Sn
   0.4999577293819931   -0.0000327262389925   0.5001433160696611 Te
   0.5000942505493984   0.4999534729136583   -0.0007739871642421 Te
   0.2135841903354261   0.0001092832884433   -0.0002052130254967 Cl
   0.7863840312117766   -0.0001023375607953   0.0002323777913429 Cl
   0.0008387216100509   0.2059518625819987   -0.0006710399621525 Cl
   -0.0008995790141534   0.7940673107042298   0.0005288147036632 Cl
   0.0006756665366310   -0.0006839361883316   0.2067162205448001 Cl
   -0.0006936261427555   0.0006998911733213   0.7933694653858344 Cl
   0.2241930728842203   0.5001151031745060   0.5033396021572883 Cl
   0.7758523377867785   0.4996922908480726   0.5033261376558099 Cl
   -0.0010337350032003   0.5000283395563937   0.7216297608588613 Cl
   0.0017831563883948   0.5010460662946269   0.2696534619823017 Br
   -0.0016971143680801   0.7320364826158530   0.5014568974665906 Br
   0.0012303393550796   0.2681768625185540   0.5044461943839709 Br
   0.4996202658628248   0.2394926861854251   0.5002456490211951 Br
   0.5003357152597812   0.7604766060993051   0.4995931841236333 Br
   0.5013325035854562   0.0016450473455404   0.7588684771431663 I
   0.4985171712418160   -0.0017712666306442   0.2409266601516873 I
   0.7693579740864618   -0.0023171816381282   0.5018132582907021 I
   0.2305843282090022   0.0022427358454104   0.4981160910139654 I
   0.4981378258517288   0.5019514645501958   0.2591010264854722 I
   0.5018108775401451   0.4980366313234096   0.7400338740701734 I
   0.5015555350694292   0.7582064652811766   0.0004984155732391 I
   0.4984712188723209   0.2417109385266904   -0.0007839785753846 I
   0.7699210721886677   0.5018309153956351   -0.0036741141355543 I
   0.2303510485964345   0.4977856191230806   0.0000526091119770 I
