Random_composition
1.0
  11.2120772280000001  -0.0711740850000000  -0.0397906130000000
  -0.0760499850000000  11.3215470499999995  0.0586539510000000
  -0.0407673470000000  0.0577148840000000  11.2998196669999995
Cs Rb Pt Sn Te Cl Br I
2 6 1 1 2 9 5 10
Direct
   0.7766291676298216   0.2441027030908418   0.2568771049634144 Cs
   0.2212936049820310   0.7583340650266522   0.7461779362486096 Cs
   0.2190003634782645   0.7629932018849755   0.2201116182497153 Rb
   0.7857534148611631   0.2402765831494311   0.7769683674465737 Rb
   0.2293169227402851   0.2481601307311918   0.7551748028067933 Rb
   0.7720773882129013   0.7561386879571671   0.2410499451564200 Rb
   0.7665463510224974   0.7448531569487123   0.7415448224453717 Rb
   0.2350665798616761   0.2402311380451235   0.2488529039203239 Rb
   0.0000944493766496   0.0004434889229922   0.0006192794245622 Pt
   -0.0021320131080734   0.4997016360526689   0.5056351215322322 Sn
   0.4998393997348097   0.0004387100004611   0.5000224207597640 Te
   0.5008926267666639   0.5005884338204137   -0.0012983096398510 Te
   0.2089944401922678   -0.0156101818396340   -0.0095920454896260 Cl
   0.7916093415548506   0.0165926640064955   0.0108714474456752 Cl
   0.0195079700543322   0.2076307932097420   -0.0057755021059990 Cl
   -0.0189561933288969   0.7927104160801413   0.0062815271072540 Cl
   0.0122663166119501   0.0024460070568875   0.2086196670167782 Cl
   -0.0122083493749008   -0.0023560335768659   0.7922571046967335 Cl
   0.2150716622401968   0.5076218115032697   0.5427249274013589 Cl
   0.7809548305548903   0.4909984228663459   0.4688911708450197 Cl
   -0.0376457159797060   0.5094423044140530   0.7231337747616743 Cl
   0.0357347666259937   0.4894412484381312   0.2727418964274868 Br
   -0.0080333187204173   0.7339774466513107   0.4884015705356742 Br
   0.0043563343304140   0.2653260010705681   0.5206499834797428 Br
   0.5011806311977420   0.2377230372920736   0.4473459787965115 Br
   0.4967801432996869   0.7631339615818158   0.5516916683763452 Br
   0.4980860619839674   0.0536700062456316   0.7561882794263355 I
   0.5025881440819047   -0.0508670605528138   0.2424863338676793 I
   0.7644731082995325   -0.0023985439590942   0.5063841465003003 I
   0.2348430834621964   0.0021237772021812   0.4934653956124784 I
   0.4847261476083926   0.5432320576750397   0.2571717894352451 I
   0.5168607650537109   0.4575890862318695   0.7403761339012843 I
   0.5072825284507976   0.7592926479761579   -0.0459512139396522 I
   0.4958218546409353   0.2415569697485337   0.0429883661140396 I
   0.7659465414918316   0.5021167744967614   0.0136335228581997 I
   0.2353807665940562   0.4983442754435065   -0.0167227372905478 I
