Random_composition
1.0
  11.2246355050000002  -0.0315238820000000  -0.0252957820000000
  -0.0362786250000000  11.2924599259999994  0.0417546030000000
  -0.0259146250000000  0.0403298310000000  11.3431926199999999
Cs Rb Pt Sn Te Cl Br I
2 6 1 1 2 9 5 10
Direct
   0.7765235109342253   0.2415765271109570   0.2550415861197666 Cs
   0.2227321983958584   0.7613820642372006   0.7484518039782224 Cs
   0.2174549020737387   0.7645961218810069   0.2220182067465595 Rb
   0.7843597582683770   0.2365233460572458   0.7807039298112420 Rb
   0.2257484799201690   0.2518796124859520   0.7484791659221377 Rb
   0.7751794178940760   0.7491454103840347   0.2499920961728390 Rb
   0.7599589949767122   0.7390137515065791   0.7375107530581785 Rb
   0.2394921940386558   0.2407278579686825   0.2442369391934544 Rb
   0.0009748154765897   0.0009206409157022   0.0011016490808604 Pt
   -0.0018910606056476   0.5004072404892379   0.5058706177977447 Sn
   0.4983923254599258   0.0002212032255337   0.4987209665635074 Te
   0.5021811523668023   0.5008138676482152   -0.0014835522792847 Te
   0.2094567389598993   -0.0194253210058376   -0.0053918269287129 Cl
   0.7928853814564817   0.0218604405203550   0.0083480802025715 Cl
   0.0236286071936327   0.2085810460719324   -0.0044195242340445 Cl
   -0.0213981062834066   0.7934019805052493   0.0065802050580740 Cl
   0.0101787511343854   0.0032009625951198   0.2086329575656409 Cl
   -0.0081747178452059   -0.0013283072230435   0.7937587748607091 Cl
   0.2138662609480606   0.4927953600811210   0.5492222206214875 Cl
   0.7817415350517436   0.5104160337006813   0.4636994822185263 Cl
   -0.0422431322465913   0.5127135709924215   0.7218199980920532 Cl
   0.0404175676490582   0.4870167453291870   0.2749091289895286 Br
   0.0080595763647902   0.7349381925480631   0.4898106738513054 Br
   -0.0133254787100855   0.2663817823050466   0.5218054964166626 Br
   0.5014271596453547   0.2377571406113240   0.4469135548456046 Br
   0.4934592846897613   0.7621767485637145   0.5491062577882311 Br
   0.4944714595362061   0.0532134419599070   0.7544539198790712 I
   0.5036675415818864   -0.0524804509379028   0.2422758791806980 I
   0.7627782242029220   -0.0074892723795314   0.5070201993333294 I
   0.2337528081461763   0.0071771888846253   0.4912164913412376 I
   0.4827438946933335   0.5418567389253029   0.2557028226948413 I
   0.5212614302276920   0.4587718549067120   0.7411237876726495 I
   0.5079910867861257   0.7601908903752674   -0.0449125263150606 I
   0.4984605678191221   0.2404349331437401   0.0399596215865371 I
   0.7667401200949765   0.5015197793526517   0.0155868402810442 I
   0.2370450431835381   0.4991120619447567   -0.0178621657103151 I
