Random_composition
1.0
  10.9397304680000005  -0.0789525650000000  -0.0144218040000000
  -0.0828050560000000  11.4298103169999994  0.0170454460000000
  -0.0159367830000000  0.0165139140000000  11.4429833819999995
Cs Rb Pt Sn Te Cl Br I
2 6 1 1 2 9 5 10
Direct
   0.7609867438971374   0.2518932619774658   0.2561264899923353 Cs
   0.2382161430000283   0.7460620138244672   0.7412217831318955 Cs
   0.2275844953595411   0.7627157859388690   0.2344459708351035 Rb
   0.7745843747996285   0.2478367304556804   0.7562473987370704 Rb
   0.2293694381003812   0.2431180425206525   0.7585236800455281 Rb
   0.7715200244411833   0.7655833025757086   0.2332308728098099 Rb
   0.7704328256913662   0.7546303800520584   0.7542454385969456 Rb
   0.2329546239278467   0.2340199555142079   0.2354779834471441 Rb
   -0.0000250496956923   -0.0003462121131431   0.0009180770195475 Pt
   -0.0008331745184276   0.5006470983833546   0.5088344565979942 Sn
   0.4993567798053937   -0.0002970591899637   0.4984178075520346 Te
   0.5004402908188407   0.4992207161868927   -0.0016378760106769 Te
   0.2143978951717467   -0.0086695408505049   -0.0079647253119998 Cl
   0.7857877264355572   0.0078802946336628   0.0108807423102152 Cl
   0.0120150249504449   0.2058620739436748   -0.0009591670426813 Cl
   -0.0117535460786357   0.7933821195610842   0.0027184292371460 Cl
   0.0104726602672551   -0.0002547555711271   0.2070164132897684 Cl
   -0.0106042107715178   -0.0004070753239360   0.7954240343692854 Cl
   0.2236428270715659   0.5144355049992116   0.5242205070255590 Cl
   0.7746637852911550   0.4848672621556492   0.4978139948628937 Cl
   -0.0148285635898780   0.5060269173480610   0.7271181310947484 Cl
   0.0144291642635970   0.4960884823612884   0.2762498152460903 Br
   -0.0136081190774900   0.7327022067639315   0.5006906257931661 Br
   0.0111285641527662   0.2683066729435721   0.5161859359471990 Br
   0.5032781484120381   0.2390558647085426   0.4845557473851629 Br
   0.4948929013201484   0.7604670427086888   0.5104188788476351 Br
   0.5027741253872740   0.0138032772149847   0.7555123815416387 I
   0.4966983330875199   -0.0138722754932370   0.2399845961018745 I
   0.7704239288104364   -0.0022077675588565   0.4996580301143113 I
   0.2281754563352132   0.0022693414977235   0.4969684766576132 I
   0.4946056328964348   0.5082697719189350   0.2569530447076771 I
   0.5064307147838435   0.4903991377311844   0.7396720147126705 I
   0.5063550032451638   0.7575802177599955   -0.0103041956931224 I
   0.4953457186333608   0.2408069457063614   0.0043056181619916 I
   0.7722343401830914   0.5004900763915324   0.0014074944608289 I
   0.2284547754451686   0.4976340395385576   -0.0045772734614622 I
