Random_composition
1.0
  11.0300053390000006  0.0007867930000000  0.0120159650000000
  0.0007126340000000  11.3812755180000007  -0.0073818600000000
  0.0118885300000000  -0.0076595130000000  11.3623146009999996
Cs Rb Pt Sn Te Cl Br I
2 6 1 1 2 9 5 10
Direct
   0.7633426872912681   0.2472795229962836   0.2489680301192470 Cs
   0.2355380145407835   0.7516097211366388   0.7510448672532033 Cs
   0.2391262417994319   0.7522530344601044   0.2489958950603181 Rb
   0.7616664901179460   0.2485066352486804   0.7509299454314191 Rb
   0.2384672850573672   0.2485463186280642   0.7509296845931202 Rb
   0.7607669928342460   0.7521818153887404   0.2489775411646951 Rb
   0.7612922157648044   0.7514845450915564   0.7509138756229926 Rb
   0.2394861284415145   0.2477849450448795   0.2489916496932851 Rb
   -0.0000042648574904   0.0000033472223465   -0.0002490622856584 Pt
   0.0000149797805153   0.5000495543242720   0.5028729899191221 Sn
   0.4999856927120008   -0.0000125697029907   0.5000743507073824 Te
   0.5000422815865088   0.4999881707536629   -0.0004495252996651 Te
   0.2127784242346834   0.0004001516745776   0.0002152920290612 Cl
   0.7872056710948599   -0.0003981065345619   -0.0002078779404834 Cl
   0.0006155068059598   0.2078585034040416   -0.0006031353449496 Cl
   -0.0006499686188139   0.7921549291285664   0.0003903594418096 Cl
   0.0005455020889750   -0.0005775484609929   0.2072182706221575 Cl
   -0.0005509356103453   0.0005837356025820   0.7928992679259741 Cl
   0.2236627773565484   0.4996128819803977   0.5023607203889686 Cl
   0.7763678627859706   0.5002772403313105   0.5031584116655063 Cl
   -0.0007931949272579   0.4996786482078449   0.7219442848472617 Cl
   0.0013229196308682   0.5010128202974912   0.2684226425197940 Br
   -0.0012190803442792   0.7340032338516442   0.5016084449058452 Br
   0.0009864600894413   0.2660658086344955   0.5038244766410881 Br
   0.4992542097351217   0.2412490225862673   0.5006067905300723 Br
   0.5007261751546883   0.7587463315429785   0.4993810196472065 Br
   0.5015447929019223   0.0014132861822054   0.7584831251939471 I
   0.4983697348782545   -0.0014877851842162   0.2414279766417730 I
   0.7677861541251064   -0.0020367033850062   0.5018343070067313 I
   0.2321971816593948   0.0019938885378451   0.4981629926793227 I
   0.4981508273888028   0.5017919836977016   0.2604291906338982 I
   0.5018244079008275   0.4982058254561994   0.7392893152592283 I
   0.5015717543928927   0.7587736443309764   0.0008531969505152 I
   0.4984149670416309   0.2411979528246221   -0.0009785371792497 I
   0.7684402876736849   0.5018278349880756   -0.0032043760499368 I
   0.2317205901747530   0.4979777000505544   0.0004859621791400 I
