Random_composition
1.0
  11.2105572779999996  -0.0832759040000000  -0.0111829700000000
  -0.0882073040000000  11.3130067120000000  0.0383141930000000
  -0.0121191420000000  0.0375199240000000  11.3165972709999991
Cs Rb Pt Sn Te Cl Br I
2 6 1 1 2 9 5 10
Direct
   0.7758144007226808   0.2448092724295398   0.2531375970052221 Cs
   0.2203700370975779   0.7555312448831301   0.7473754361881965 Cs
   0.2178258252231407   0.7630531428901767   0.2221303907955200 Rb
   0.7874423950715297   0.2426419342194133   0.7735929012175269 Rb
   0.2319189356726953   0.2453888675265905   0.7579267389897729 Rb
   0.7708899387357309   0.7593347213965251   0.2382136146966360 Rb
   0.7672958418572281   0.7472163288548699   0.7413104358888974 Rb
   0.2345441206101384   0.2382145239707394   0.2539814604857508 Rb
   0.0001397201062589   0.0002146833610432   0.0006109024559656 Pt
   -0.0012816572610159   0.4989781467920936   0.5032031790014493 Sn
   0.4999532161957471   0.0002442941788542   0.5010765573866469 Te
   0.5001562007646945   0.5011350705629871   -0.0011582416260180 Te
   0.2090167764742099   -0.0138855702038301   -0.0124304641999562 Cl
   0.7914867736724291   0.0143796668227063   0.0139794872722793 Cl
   0.0180288656729456   0.2078408075738660   -0.0040799929029043 Cl
   -0.0173971643527478   0.7923231692463460   0.0049014932563011 Cl
   0.0142812854487439   0.0017725300954199   0.2083331002834413 Cl
   -0.0142418731720566   -0.0018201693802074   0.7930608695318040 Cl
   0.2152323000098200   0.5146665934721274   0.5393677759305585 Cl
   0.7816960289617816   0.4826927517755704   0.4704194708449980 Cl
   -0.0370565967872076   0.5105760957881897   0.7210377015911580 Cl
   0.0362495242458346   0.4886598083187613   0.2709765751754026 Br
   -0.0158051621314838   0.7333416744095081   0.4875949655854612 Br
   0.0123714277034007   0.2647196082151469   0.5198714498943156 Br
   0.4946490249510760   0.2378288491130050   0.4507732583055772 Br
   0.5039457070338638   0.7629431593935255   0.5507860630720819 Br
   0.4997817555757059   0.0518748746315334   0.7571703132335199 I
   0.5010198850240182   -0.0485868518146436   0.2432378205607097 I
   0.7643963622379416   0.0041924902565056   0.5057613567616528 I
   0.2348772127758545   -0.0052731855371985   0.4958750875630196 I
   0.4836252564664342   0.5448316795583993   0.2566605058973289 I
   0.5177983469866623   0.4574175055239101   0.7410147007954067 I
   0.5070867728341878   0.7596319299886228   -0.0461891446420940 I
   0.4937036662703228   0.2420574508705802   0.0430718550573618 I
   0.7653894570050576   0.5034344454405250   0.0120266401261199 I
   0.2347953225979736   0.4976184889774695   -0.0146192479785647 I
