Random_composition
1.0
  11.2036883629999995  -0.0765521410000000  -0.0048876190000000
  -0.0812870510000000  11.3222391039999994  0.0348448620000000
  -0.0057511190000000  0.0341000310000000  11.3222517899999993
Cs Rb Pt Sn Te Cl Br I
2 6 1 1 2 9 5 10
Direct
   0.7759210195488190   0.2444859124086146   0.2510395795074280 Cs
   0.2193971261179981   0.7548465629434054   0.7490329629248798 Cs
   0.2162428787547253   0.7623854376270888   0.2235669851180629 Rb
   0.7884865174220375   0.2440663367846052   0.7716388511670514 Rb
   0.2319020476668204   0.2450272009972541   0.7582409991475133 Rb
   0.7710897970432133   0.7599219002795066   0.2378625267612705 Rb
   0.7669598859358951   0.7470934381498058   0.7408169678195528 Rb
   0.2348693813690913   0.2388065592963343   0.2558587129290050 Rb
   0.0002690905086787   0.0001358646919193   0.0006541614833177 Pt
   -0.0013123461848458   0.4991180560751106   0.5033885477622122 Sn
   0.4999521888327719   0.0000595509387079   0.5014118751348657 Te
   0.5000807032700637   0.5014844503336261   -0.0010148116057914 Te
   0.2091641266738961   -0.0134672859195856   -0.0131438889084243 Cl
   0.7915442111244325   0.0136491942598662   0.0148082877280046 Cl
   0.0174783531271063   0.2075445170778575   -0.0032446224661819 Cl
   -0.0167002882429566   0.7925053251569286   0.0043042353737056 Cl
   0.0151872862158373   0.0012936097309049   0.2083886843163123 Cl
   -0.0148567164501317   -0.0012529033803806   0.7932062640761843 Cl
   0.2153543740724652   0.5150995514815879   0.5376990469969767 Cl
   0.7817465210755057   0.4809018456548956   0.4700490696914808 Cl
   -0.0365857202494257   0.5107632075957700   0.7210000149144562 Cl
   0.0361621229259830   0.4882676096363500   0.2711336213096393 Br
   -0.0171742269383988   0.7326751549770375   0.4865680605267746 Br
   0.0147994619111135   0.2655081710674929   0.5192351175004657 Br
   0.4907963903053729   0.2377380474186290   0.4529174029531044 Br
   0.5072554451762217   0.7627496038071164   0.5495038868647598 Br
   0.5004508456055750   0.0508824676080472   0.7579793471895159 I
   0.5006762970419898   -0.0478129797410044   0.2430446878149807 I
   0.7650231870146005   0.0077032815855876   0.5051539948203622 I
   0.2342836576408703   -0.0089325233782297   0.4968054452532982 I
   0.4838525938693489   0.5448182373689263   0.2568208890569808 I
   0.5180408090326049   0.4579596742790308   0.7410022847097615 I
   0.5064197511963050   0.7598192456458825   -0.0459723577620201 I
   0.4930928485702171   0.2424873401825642   0.0430400790503907 I
   0.7657881356766891   0.5037933864372959   0.0121272934184577 I
   0.2343393218625431   0.4978721993778714   -0.0149239682965023 I
