Random_composition
1.0
  11.2297336580000007  -0.0335184070000000  -0.0381658640000000
  -0.0383365860000000  11.2919167779999992  0.0476757080000000
  -0.0389572220000000  0.0463078770000000  11.3239786650000003
Cs Rb Pt Sn Te Cl Br I
2 6 1 1 2 9 5 10
Direct
   0.7778778664883934   0.2415395125345832   0.2554458021482810 Cs
   0.2216983069836711   0.7622199325931458   0.7475386684239465 Cs
   0.2181278815056324   0.7637716384977236   0.2214638299518955 Rb
   0.7842318095813345   0.2374178663744304   0.7796386836196592 Rb
   0.2263116586263233   0.2523989068483106   0.7488608318922798 Rb
   0.7749856816385121   0.7497531371045212   0.2484730031492587 Rb
   0.7618489893465009   0.7391300730590421   0.7394139748124255 Rb
   0.2381676023786754   0.2431039730934048   0.2440873300856532 Rb
   0.0006988662402579   0.0007179561709275   0.0007843924849993 Pt
   -0.0020234107594142   0.5001769394679839   0.5065186587461423 Sn
   0.4987293552654566   0.0003493816754912   0.4988659857853174 Te
   0.5019169524178941   0.5005420600221063   -0.0014215500952692 Te
   0.2091638690647579   -0.0193609225150266   -0.0059867681259998 Cl
   0.7926107517803165   0.0211959182734210   0.0080872762530050 Cl
   0.0223537923667712   0.2084635024909684   -0.0052530559297077 Cl
   -0.0206183558422789   0.7928544496107357   0.0063151995888079 Cl
   0.0102280284983706   0.0032062419368272   0.2085651670282707 Cl
   -0.0088862459196663   -0.0020327524693486   0.7928633590073904 Cl
   0.2137833680905919   0.4941865969681021   0.5491884712110099 Cl
   0.7818702589569498   0.5075573812973014   0.4645286565863572 Cl
   -0.0406349141699289   0.5114515768032700   0.7231888684735814 Cl
   0.0385882998534216   0.4882905487251133   0.2748383099487249 Br
   0.0058828147728589   0.7352548889132341   0.4904169187887779 Br
   -0.0114090678481588   0.2656208031529274   0.5215005324472056 Br
   0.5019880630971068   0.2376952349688921   0.4463825541418414 Br
   0.4939322998138216   0.7626074125122947   0.5501523527165997 Br
   0.4952636201003656   0.0540125848063404   0.7546196728680736 I
   0.5030676208410438   -0.0528351618072911   0.2423405275946164 I
   0.7628622508542076   -0.0078704358964211   0.5075213134482240 I
   0.2343131893851667   0.0075197396715247   0.4904463723136717 I
   0.4832618463967150   0.5416642508396747   0.2563392218514829 I
   0.5206603085769343   0.4587926628878687   0.7407624505180009 I
   0.5081890221105997   0.7597653406539373   -0.0454201559929706 I
   0.4978715971359944   0.2405031433129298   0.0409516439187044 I
   0.7664735046544952   0.5011016581629114   0.0149596490965621 I
   0.2366126967895683   0.4992365120478410   -0.0169790964689165 I
