Random_composition
1.0
  10.9387692229999995  -0.0799945980000000  -0.0144767360000000
  -0.0839156460000000  11.4258564790000001  0.0166419580000000
  -0.0160007800000000  0.0161092310000000  11.4403697449999999
Cs Rb Pt Sn Te Cl Br I
2 6 1 1 2 9 5 10
Direct
   0.7609144839817937   0.2519095603329240   0.2561615887511966 Cs
   0.2382880559234429   0.7459846119642489   0.7411058538909663 Cs
   0.2275841366918943   0.7627812430526877   0.2344304040721025 Rb
   0.7745950869751409   0.2478212987272311   0.7562639643458580 Rb
   0.2293301690172511   0.2431323841691080   0.7585370007101914 Rb
   0.7715490271805195   0.7655989253704680   0.2331776424955651 Rb
   0.7704473253766015   0.7546445936683255   0.7542758661860564 Rb
   0.2329449357943990   0.2339729989553095   0.2354197087636423 Rb
   -0.0000222766320008   -0.0003419348503589   0.0009383759626466 Pt
   -0.0008111792511721   0.5006623912280944   0.5089307761953925 Sn
   0.4993532627730233   -0.0003014117998954   0.4984379131566625 Te
   0.5004397223620799   0.4992080373214792   -0.0016706685073855 Te
   0.2144887151236915   -0.0086937281429478   -0.0079936422402366 Cl
   0.7856941788979802   0.0078974846731276   0.0109107363117316 Cl
   0.0120231301754560   0.2058398712151934   -0.0009336693697958 Cl
   -0.0117625590181828   0.7934018363101839   0.0027032305065952 Cl
   0.0104713825396413   -0.0002229632806338   0.2070366041291031 Cl
   -0.0105998669855611   -0.0004350838438583   0.7953994487938704 Cl
   0.2236216392576501   0.5145200669805939   0.5243007720718184 Cl
   0.7746760474309834   0.4848520622056276   0.4978401939725719 Cl
   -0.0148181072156199   0.5060375221239750   0.7270695101982658 Cl
   0.0144100636688639   0.4960698075118846   0.2762579451741135 Br
   -0.0136087971381164   0.7326929913064013   0.5007320279619458 Br
   0.0111408185835914   0.2683322391191720   0.5161979761551834 Br
   0.5033397772824625   0.2389885727091446   0.4845253783608819 Br
   0.4948296939026470   0.7605330204947782   0.5104255273577176 Br
   0.5027865062665942   0.0137906477762217   0.7554825059663750 I
   0.4966761146721188   -0.0138776969316421   0.2399853555641429 I
   0.7703936211772194   -0.0022266817884249   0.4996560398682000 I
   0.2281997260909907   0.0022912047081055   0.4969678064419386 I
   0.4946221800433762   0.5082173718708785   0.2568931641258494 I
   0.5064136139947242   0.4904379731996406   0.7397286588349696 I
   0.5063738371187337   0.7575539200358671   -0.0102546108891254 I
   0.4953259432830322   0.2408200499292951   0.0042256488938661 I
   0.7722460811235071   0.5004984406470102   0.0013758583827263 I
   0.2284438508043672   0.4976097376411778   -0.0045421677964568 I
