Random_composition
1.0
  10.9620248129999993  -0.0523885180000000  -0.0122979420000000
  -0.0552250330000000  11.4237094779999993  0.0298488640000000
  -0.0136222730000000  0.0293064540000000  11.4376706039999991
Cs Rb Pt Sn Te Cl Br I
2 6 1 1 2 9 5 10
Direct
   0.7636306422137281   0.2515148656858442   0.2553267840486878 Cs
   0.2355018630876877   0.7485895058535913   0.7448379951527667 Cs
   0.2274690001543845   0.7604158023854246   0.2346771423687560 Rb
   0.7743491640410688   0.2486409389598725   0.7556408599940548 Rb
   0.2309263624903087   0.2425263697101361   0.7580958643234491 Rb
   0.7705389059745715   0.7653638617870694   0.2348625777012648 Rb
   0.7699422283406219   0.7539915534682430   0.7529289146095138 Rb
   0.2332642187599770   0.2354550780854703   0.2374889693255502 Rb
   -0.0000303172254776   -0.0004011573937262   0.0007205664106226 Pt
   -0.0009120079439773   0.5002553723523572   0.5084266657907495 Sn
   0.4994382002107687   -0.0002696515331287   0.4983628492341146 Te
   0.5005307531724337   0.4995176994903875   -0.0011265001547994 Te
   0.2139818093054243   -0.0084133364332542   -0.0074488362652557 Cl
   0.7862508707804788   0.0077931598844544   0.0103637055778938 Cl
   0.0118674120344592   0.2052497465857107   -0.0017661399533500 Cl
   -0.0115569618227073   0.7939969373113904   0.0032146376503206 Cl
   0.0108175898662199   -0.0012723509814965   0.2064966804952553 Cl
   -0.0110538459743589   0.0004857221834079   0.7958027361799287 Cl
   0.2229478160410844   0.5118360692838946   0.5221836054624284 Cl
   0.7749003714246763   0.4850192135558173   0.4963853745967473 Cl
   -0.0156159052326668   0.5058567367912169   0.7261713503673135 Cl
   0.0155275294767632   0.4964668845043217   0.2757075363787803 Br
   -0.0140042770000364   0.7318251333256079   0.4991605218409282 Br
   0.0109431431557439   0.2683436427459833   0.5160460577679212 Br
   0.5008402364289646   0.2393290965563880   0.4849515075722420 Br
   0.4973505820929705   0.7603912632874631   0.5106922358093458 Br
   0.5023402755749694   0.0147867387634423   0.7553781432731084 I
   0.4974811250270645   -0.0142164485012165   0.2404547598964543 I
   0.7707315635744681   -0.0013983328233813   0.4996043642587734 I
   0.2280920808650649   0.0013128664193025   0.4968735394095407 I
   0.4937403920135631   0.5106720875698109   0.2578531163488972 I
   0.5073164094534817   0.4885561538272500   0.7395637096445933 I
   0.5058172723259390   0.7575130905268597   -0.0126407201907992 I
   0.4960007318020859   0.2414984051483983   0.0077499464925287 I
   0.7716175700706489   0.5001437399227964   0.0029726844588104 I
   0.2290155824008239   0.4986221024633388   -0.0060140639957147 I
