Random_composition
1.0
  10.9443601749999999  -0.0045229530000000  0.0134547510000000
  -0.0048084930000000  11.4337474290000003  -0.0017210190000000
  0.0132332910000000  -0.0020446710000000  11.3873391650000002
Cs Rb Pt Sn Te Cl Br I
2 6 1 1 2 9 5 10
Direct
   0.7688107855026555   0.2440994312813265   0.2464698645931718 Cs
   0.2294254501738758   0.7535672800181008   0.7533094357694525 Cs
   0.2321709894819197   0.7558172918880216   0.2464550262710090 Rb
   0.7693807695838848   0.2461703251925514   0.7529082705712098 Rb
   0.2310724260514885   0.2462407631931875   0.7529638521201052 Rb
   0.7675280288317650   0.7555637587431121   0.2463431887313121 Rb
   0.7680505942013001   0.7537828843872180   0.7528153171650548 Rb
   0.2334685394824256   0.2443669391252403   0.2464429361782461 Rb
   -0.0000310608108043   0.0000148561431554   0.0000009171135617 Pt
   0.0000135204913009   0.5001851088349317   0.5038174909020529 Sn
   0.4999270358845819   -0.0000521505923461   0.5001180200170006 Te
   0.5001313130003723   0.4999078414365181   -0.0010141782222363 Te
   0.2145732131143698   -0.0001618563275613   -0.0005521314172202 Cl
   0.7853856260057052   0.0001603531250257   0.0005745949812402 Cl
   0.0013314439501305   0.2059757118131852   -0.0008591494458443 Cl
   -0.0014163611582552   0.7940401944071519   0.0007030277163128 Cl
   0.0011256613175602   -0.0008441785470928   0.2067738009329718 Cl
   -0.0011487486430766   0.0008611882102223   0.7931859065030517 Cl
   0.2248823244804804   0.5007289567205704   0.5043791130786242 Cl
   0.7751515105076647   0.4990704423791247   0.5034617267547171 Cl
   -0.0014874101518478   0.5003924719461794   0.7227896770636765 Cl
   0.0023292860994622   0.5009190180787116   0.2694809302435578 Br
   -0.0022742595184077   0.7328668775517608   0.5013341391431425 Br
   0.0016485136237705   0.2674643850940727   0.5051029083797596 Br
   0.5000728469703084   0.2392744483715181   0.4997395227960628 Br
   0.4998402926014127   0.7606563774561937   0.4999072913273814 Br
   0.5010966927035843   0.0019186341855293   0.7584310123407690 I
   0.4986685001274457   -0.0021044123211983   0.2412255293324841 I
   0.7708818182995651   -0.0024469142585182   0.5017619729339485 I
   0.2289991721109399   0.0023460601011256   0.4981271593462765 I
   0.4982294022018268   0.5020535738923824   0.2593529926876629 I
   0.5017315646173900   0.4978998304206541   0.7392865093254193 I
   0.5015279039209459   0.7574803003497619   0.0000242115316163 I
   0.4985648791533409   0.2423609348629376   -0.0006209491462527 I
   0.7715868109568049   0.5017595470454942   -0.0038734220578922 I
   0.2287523294491546   0.4976639477818333   -0.0003680681204739 I
