Random_composition
1.0
  11.0910392980000001  -0.0504515200000000  -0.0052474050000000
  -0.0537394690000000  11.3875497289999998  0.0049608140000000
  -0.0061360550000000  0.0044391080000000  11.3372627640000001
Cs Rb Pt Sn Te Cl Br I
2 6 1 1 2 9 5 10
Direct
   0.7744931491885270   0.2439430988473620   0.2500924589916784 Cs
   0.2187259469884900   0.7569397973142804   0.7513835467529245 Cs
   0.2197657976787530   0.7575428281636917   0.2299766024085789 Rb
   0.7838568099784812   0.2482797460086860   0.7633995722482885 Rb
   0.2353530488446809   0.2434696544931030   0.7571613504762805 Rb
   0.7684109874109236   0.7612045115849642   0.2395239509030631 Rb
   0.7627257445297340   0.7474913746509284   0.7401199336980654 Rb
   0.2365944822549585   0.2425896774240787   0.2578301416884348 Rb
   0.0005025013072311   -0.0000164783811303   0.0006758878870117 Pt
   -0.0007898318619674   0.4982440263294271   0.5026966630418223 Sn
   0.4996959792771360   -0.0001488215210385   0.5012570462335297 Te
   0.5004568023444405   0.5018675536727989   -0.0006574401788735 Te
   0.2116767973166353   -0.0120522096390563   -0.0124906214394828 Cl
   0.7894687682572733   0.0117431928363382   0.0143512953658547 Cl
   0.0157293972162222   0.2062929582757338   -0.0017456455662966 Cl
   -0.0145055039472748   0.7933231227639204   0.0026274733074652 Cl
   0.0151681788521678   -0.0001025800395431   0.2080131819777981 Cl
   -0.0144365500087660   -0.0002757773839743   0.7934212870340074 Cl
   0.2182722261778961   0.5138211645645454   0.5334635456054724 Cl
   0.7797803618620242   0.4828238084673928   0.4755404136332284 Cl
   -0.0327675746999817   0.5092730747664400   0.7195953570178324 Cl
   0.0313093390430483   0.4870335304391049   0.2705625047137674 Br
   -0.0154575361243124   0.7299220791958996   0.4879738606699078 Br
   0.0153668898846753   0.2664352228985508   0.5160795001849855 Br
   0.4840620937030731   0.2371031914725349   0.4611927899935465 Br
   0.5137832585652249   0.7631069487678303   0.5412841287132547 Br
   0.5015008501721376   0.0440843477370058   0.7588862552554719 I
   0.4991379721444146   -0.0418504548880709   0.2424824094350712 I
   0.7675606133548856   0.0117405642996052   0.5042318924455843 I
   0.2318605855715762   -0.0138174517090840   0.4966397383046413 I
   0.4850219511024817   0.5411958096344032   0.2581372943172043 I
   0.5163106794050317   0.4630864395251433   0.7408694832600651 I
   0.5059881453615462   0.7586987555402959   -0.0387323331764630 I
   0.4945913051156682   0.2446649252271370   0.0380437141380033 I
   0.7689486311065729   0.5042421622837274   0.0116980205958261 I
   0.2318368881027974   0.4981006308836132   -0.0155844004161498 I
