Random_composition
1.0
  11.0648210169999999  -0.0541898980000000  0.0001789240000000
  -0.0573058430000000  11.4204032909999995  -0.0081178630000000
  -0.0006243960000000  -0.0085538460000000  11.3560238459999994
Cs Rb Pt Sn Te Cl Br I
2 6 1 1 2 9 5 10
Direct
   0.7739044123470408   0.2444277979790523   0.2509078705666810 Cs
   0.2189599001202819   0.7579156128153182   0.7513046462062903 Cs
   0.2221510048517294   0.7560540296922925   0.2318943523366081 Rb
   0.7813708199704430   0.2494194493198197   0.7608618178421638 Rb
   0.2366655798237949   0.2429028284597434   0.7567798045579714 Rb
   0.7674633085160705   0.7616003881507233   0.2402218670021223 Rb
   0.7620212541611930   0.7478551436306001   0.7404259409573768 Rb
   0.2367180427143079   0.2432941915474606   0.2572011748113234 Rb
   0.0004364557754988   -0.0003653985556630   0.0003915944271056 Pt
   -0.0011415342229411   0.4982907970711299   0.5031325522167852 Sn
   0.4996553789031937   -0.0000953168222363   0.5009640612806512 Te
   0.5005508869969902   0.5018020560032636   -0.0003448390278373 Te
   0.2127908000917581   -0.0113532387407956   -0.0116528671665683 Cl
   0.7884573983582934   0.0110208012498610   0.0135107493154125 Cl
   0.0152487280352035   0.2058286522124828   -0.0011819136473553 Cl
   -0.0140517766288977   0.7937807899870878   0.0021289421573154 Cl
   0.0149728946118954   -0.0001287807889259   0.2078470693240391 Cl
   -0.0141874857022109   -0.0003056313996209   0.7936061230253831 Cl
   0.2199413707259188   0.5123445052864570   0.5310212334431639 Cl
   0.7778340988217142   0.4838423209056697   0.4774090532044852 Cl
   -0.0312205457713817   0.5088436924470450   0.7215488819508623 Cl
   0.0296479693923618   0.4865214504426417   0.2705862766244828 Br
   -0.0147309349490461   0.7306355118283113   0.4887242145639434 Br
   0.0155121241718831   0.2659037973749783   0.5141549431638067 Br
   0.4835172671106645   0.2366634562031263   0.4641611148542725 Br
   0.5146518969481529   0.7637138371572684   0.5378966902114092 Br
   0.5018934898929036   0.0406210268241480   0.7588342603009970 I
   0.4983354478948006   -0.0385426929924713   0.2422483422748316 I
   0.7678551265628080   0.0109001354524965   0.5043289073501669 I
   0.2314325032547845   -0.0134448877358520   0.4959939785084260 I
   0.4851865841088869   0.5388948319263980   0.2576736278977880 I
   0.5156681805807646   0.4656268650454165   0.7414881955053281 I
   0.5064226267507035   0.7588741531430050   -0.0355529523561915 I
   0.4951916187508757   0.2445551462639191   0.0355411954907339 I
   0.7693012345197712   0.5042020500996547   0.0108017910473260 I
   0.2315747641094884   0.4979002725268271   -0.0148590343214623 I
