Random_composition
1.0
  10.9241608869999993  -0.0113135060000000  0.0095474080000000
  -0.0119101630000000  11.4222161750000009  0.0039262330000000
  0.0091546350000000  0.0035689700000000  11.3796469469999995
Cs Rb Pt Sn Te Cl Br I
2 6 1 1 2 9 5 10
Direct
   0.7676620220614573   0.2440127769322925   0.2460825700036598 Cs
   0.2306397403995798   0.7534544914592756   0.7535128102255899 Cs
   0.2316524854436696   0.7568684823533507   0.2452753314926880 Rb
   0.7700891593790858   0.2458045348973430   0.7536835368151398 Rb
   0.2305253775868272   0.2458181023450783   0.7538717133295612 Rb
   0.7680056600362724   0.7565365801320233   0.2450214150506459 Rb
   0.7683760620281140   0.7541665714467917   0.7535552734189823 Rb
   0.2333518473038630   0.2433349841135107   0.2452349108772008 Rb
   -0.0000366302302131   0.0000025838543411   0.0000202413642542 Pt
   -0.0000225639575746   0.5002506215548873   0.5040680208836262 Sn
   0.4998874703792369   -0.0000796020861958   0.5000636407619596 Te
   0.5001458770240004   0.4998428092625609   -0.0011817234877880 Te
   0.2152752582333186   -0.0005166665032540   -0.0008421431889950 Cl
   0.7846686505036877   0.0004827241166528   0.0010014856361145 Cl
   0.0021215946534711   0.2062636416727986   -0.0010931881194858 Cl
   -0.0022231235097526   0.7937322414330069   0.0010092446102409 Cl
   0.0018968945498610   -0.0010389895925921   0.2070693387820993 Cl
   -0.0019230346104557   0.0010346466968024   0.7930258592171084 Cl
   0.2252744841636644   0.5015790152287513   0.5056650635389875 Cl
   0.7746861408131007   0.4983172698067923   0.5034608957831428 Cl
   -0.0021629200309301   0.5006492836612484   0.7232293781056851 Cl
   0.0029314230338505   0.5007119503424531   0.2698331604685544 Br
   -0.0029091065565155   0.7328681457587293   0.5011807826632289 Br
   0.0022248827843068   0.2675618660404878   0.5059434861840021 Br
   0.5005479171084399   0.2395841795513859   0.4989285193067056 Br
   0.4992872375087859   0.7602984018642672   0.5004204452810660 Br
   0.5009997343611158   0.0023751879159619   0.7588053887615029 I
   0.4986603750893626   -0.0026358311481917   0.2405821065964240 I
   0.7713716534903993   -0.0024210474429144   0.5017260141981852 I
   0.2284209871377411   0.0023092323794311   0.4980963057513791 I
   0.4983189761836698   0.5021426805558367   0.2593147950899364 I
   0.5017083155216872   0.4977342700614651   0.7390506756903850 I
   0.5016633807713209   0.7578894802492621   -0.0005347473160575 I
   0.4985284951445774   0.2418367923668751   -0.0005649702989486 I
   0.7722277316489591   0.5016907461665732   -0.0037973522542150 I
   0.2281294053260603   0.4975368546932677   -0.0007189581684883 I
