Random_composition
1.0
  10.9499397280000004  -0.0602295970000000  -0.0132068370000000
  -0.0633396480000000  11.4242356459999996  0.0260718690000000
  -0.0145953700000000  0.0255330020000000  11.4369691840000005
Cs Rb Pt Sn Te Cl Br I
2 6 1 1 2 9 5 10
Direct
   0.7627493011812978   0.2516382363529045   0.2555740755731131 Cs
   0.2364146996436657   0.7477560296135157   0.7436679032984753 Cs
   0.2275060221635601   0.7611837450175865   0.2346031635566401 Rb
   0.7744237324070379   0.2483653485250105   0.7558438079264433 Rb
   0.2303985966668086   0.2427222915620497   0.7582406206929430 Rb
   0.7708656487588071   0.7654346627572892   0.2343229523137788 Rb
   0.7701117625820790   0.7542121635341121   0.7533794033342686 Rb
   0.2331610676439358   0.2349764872687148   0.2368086335154166 Rb
   -0.0000188705710153   -0.0003234682430865   0.0009493934998351 Pt
   -0.0008890117311697   0.5003874559380650   0.5084495839073964 Sn
   0.4994160685965301   -0.0002752204511745   0.4983280789195387 Te
   0.5004991800462123   0.4994326612672229   -0.0012355661366252 Te
   0.2137668165584696   -0.0084540568883013   -0.0075891087960103 Cl
   0.7864505072905977   0.0077773139856468   0.0104856236488526 Cl
   0.0119177178905991   0.2052528477007472   -0.0015313436381414 Cl
   -0.0116281126413620   0.7939473624296369   0.0030503481494356 Cl
   0.0106896549331381   -0.0009589269628220   0.2063541607552908 Cl
   -0.0109033574584177   0.0002032822906132   0.7958700032102878 Cl
   0.2231521299896060   0.5126646577780926   0.5227941871499630 Cl
   0.7748362599290313   0.4849734499974732   0.4968902932675560 Cl
   -0.0153427466672348   0.5059021214507065   0.7265445436919653 Cl
   0.0151615200920684   0.4963637310608401   0.2759934957215636 Br
   -0.0138610258230209   0.7320811111648394   0.4996682359569815 Br
   0.0109984291881968   0.2683895316812707   0.5160840903556796 Br
   0.5016671152578444   0.2393118717708908   0.4848623825800207 Br
   0.4965197521329322   0.7603369889509327   0.5105648144292417 Br
   0.5024813233446883   0.0144382532896586   0.7554238905156256 I
   0.4972270437289367   -0.0140769777937483   0.2403358586892800 I
   0.7706741735989328   -0.0016797107298593   0.4996202988273207 I
   0.2280740340420800   0.0016464211330098   0.4969139218514333 I
   0.4940441151404751   0.5098458092107017   0.2576042725614053 I
   0.5070126550982184   0.4891850809584289   0.7394950469900048 I
   0.5059907162461439   0.7575148408555862   -0.0118446844267869 I
   0.4957842921097470   0.2412732998593961   0.0065740577994305 I
   0.7717943515942051   0.5002560149071203   0.0024386139774620 I
   0.2288570577907431   0.4982946366446395   -0.0055372182623396 I
