Random_composition
1.0
  10.9660642609999996  -0.0014776960000000  0.0147543200000000
  -0.0016299440000000  11.4394418190000007  -0.0062282110000000
  0.0146029010000000  -0.0065291600000000  11.3925392629999997
Cs Rb Pt Sn Te Cl Br I
2 6 1 1 2 9 5 10
Direct
   0.7682828839202129   0.2447679862883846   0.2471757094829832 Cs
   0.2300557232136692   0.7532128488292743   0.7527169013709542 Cs
   0.2335531235203577   0.7548156736273531   0.2473307459129219 Rb
   0.7677938938066202   0.2467407199153686   0.7522474383121779 Rb
   0.2325581079512057   0.2468114528961400   0.7522568726092569 Rb
   0.7661964058504606   0.7546274425030134   0.2472780832217819 Rb
   0.7667676889239914   0.7532198043677886   0.7521763040004137 Rb
   0.2345443228932977   0.2453250335866622   0.2473309355386515 Rb
   -0.0000082083208653   -0.0000000005532536   0.0000008883976182 Pt
   0.0000264867890003   0.5001221672431163   0.5036475489027952 Sn
   0.4999465500143671   -0.0000389474423502   0.5001706164447127 Te
   0.5001081291864524   0.4999425045454429   -0.0008904957650126 Te
   0.2141967425628008   0.0000161008719926   -0.0003572712728163 Cl
   0.7857627586050270   -0.0000066968515789   0.0003481719934849 Cl
   0.0009380252150201   0.2061251537532188   -0.0007171402955566 Cl
   -0.0010080185926217   0.7939008070293837   0.0005485567548955 Cl
   0.0007505082460967   -0.0007167468369545   0.2067198899510732 Cl
   -0.0007734002897545   0.0007375789126434   0.7931546950326680 Cl
   0.2237576361500819   0.5002918134782058   0.5036554536919583 Cl
   0.7762861214825565   0.4994949741123766   0.5033695521128440 Cl
   -0.0011365364337980   0.5001590417586367   0.7216759736409142 Cl
   0.0019464335920945   0.5010284120229782   0.2699417330384668 Br
   -0.0018665773524929   0.7319894791182412   0.5014146884318964 Br
   0.0013284747192519   0.2682654317349439   0.5046338731210860 Br
   0.4997578679520580   0.2392690002799059   0.5001129685650854 Br
   0.5001888655695705   0.7606910979192623   0.4996706762792056 Br
   0.5012512959841415   0.0017207324870893   0.7586767879865625 I
   0.4985751082341437   -0.0018636651046821   0.2410676138663024 I
   0.7698959425042113   -0.0023913755359059   0.5017990882395060 I
   0.2300323817523817   0.0023071205068747   0.4981119895099003 I
   0.4981528182388941   0.5019945357255508   0.2590174634186949 I
   0.5017904519456287   0.4979878219886730   0.7399454855255850 I
   0.5015373097253792   0.7580941115037340   0.0003617918735695 I
   0.4985046961561604   0.2418030555195709   -0.0007126679286275 I
   0.7704663308901726   0.5018158973120105   -0.0037912787049893 I
   0.2298411304137324   0.4977374888090802   -0.0000905097152240 I
