Random_composition
1.0
  11.2264687710000004  -0.0325429180000000  -0.0281639970000000
  -0.0373253910000000  11.2895920049999994  0.0430687670000000
  -0.0288348610000000  0.0416616580000000  11.3353949660000008
Cs Rb Pt Sn Te Cl Br I
2 6 1 1 2 9 5 10
Direct
   0.7769830217037343   0.2414525655747011   0.2550148355548730 Cs
   0.2224662723962621   0.7618066276214488   0.7482584852777581 Cs
   0.2177352764618510   0.7643572211499475   0.2218963150516647 Rb
   0.7842649620890608   0.2367876949255686   0.7802330583544894 Rb
   0.2260304602041697   0.2521510827357747   0.7484782056928948 Rb
   0.7750969835563122   0.7492446616173283   0.2495670238088462 Rb
   0.7605695430928606   0.7389614419128949   0.7382799227788484 Rb
   0.2390942031931344   0.2417464425404180   0.2441601845825437 Rb
   0.0008827030655806   0.0008653301607043   0.0009481444427528 Pt
   -0.0019742493596230   0.5001063215427182   0.5059669691097737 Sn
   0.4984924954611064   0.0002545981114480   0.4987341502326922 Te
   0.5020847045724276   0.5007168389831514   -0.0014286705321158 Te
   0.2091133997031246   -0.0194110694934971   -0.0055635044211538 Cl
   0.7929902120839417   0.0215833993588250   0.0081235990304979 Cl
   0.0232212636783826   0.2084641663508170   -0.0047933301989751 Cl
   -0.0211672709716891   0.7932607491127732   0.0065034419083930 Cl
   0.0102432445805010   0.0030922117974852   0.2084299065049636 Cl
   -0.0084784687047971   -0.0015198759590056   0.7936041662949480 Cl
   0.2135753178021990   0.4931564444820121   0.5493135010544025 Cl
   0.7818393173221634   0.5098861956720490   0.4641249437015538 Cl
   -0.0416538291726935   0.5123241154580430   0.7221082033995883 Cl
   0.0399285908243533   0.4876374520635116   0.2748693463487026 Br
   0.0074055173504897   0.7349572847082259   0.4902136080467997 Br
   -0.0127633064542847   0.2658910796118901   0.5218908517139823 Br
   0.5016341083893179   0.2379045649639246   0.4466736077952297 Br
   0.4936622545538029   0.7621515395503378   0.5495528469775846 Br
   0.4946626915567463   0.0535745249634825   0.7544884245746032 I
   0.5034744096852266   -0.0527105678786143   0.2423170995954825 I
   0.7627046676616241   -0.0076335959798586   0.5072006400115177 I
   0.2339941839276616   0.0073505389242859   0.4908654395841808 I
   0.4829279717132551   0.5418434206276519   0.2559844330626788 I
   0.5210745835162238   0.4587409861770198   0.7409382875102120 I
   0.5080187551343032   0.7599956971025784   -0.0450998170277578 I
   0.4982740206779546   0.2404822879121099   0.0402858580373739 I
   0.7667732282779699   0.5012909538644431   0.0154264951626482 I
   0.2368204844139764   0.4992384697845165   -0.0175654906174190 I
