Random_composition
1.0
  10.9174124769999992  -0.0144051460000000  0.0083447140000000
  -0.0151351760000000  11.4248749180000004  0.0060285290000000
  0.0078924940000000  0.0056585700000000  11.3849948489999999
Cs Rb Pt Sn Te Cl Br I
2 6 1 1 2 9 5 10
Direct
   0.7670107742751825   0.2441800093738402   0.2461465732180082 Cs
   0.2313519660192573   0.7532484959505825   0.7533370517388968 Cs
   0.2315402395482537   0.7572984912260937   0.2447319918858108 Rb
   0.7702812952242092   0.2457426991270905   0.7539740570596352 Rb
   0.2304269127444621   0.2456877125613988   0.7542450507625279 Rb
   0.7681048738571417   0.7569546085341567   0.2443977444522798 Rb
   0.7684042743717022   0.7542632643489438   0.7538168354011195 Rb
   0.2334229716653954   0.2428786279360737   0.2446815293423792 Rb
   -0.0000137489654975   0.0000078462884608   0.0000281130939322 Pt
   -0.0000300670036417   0.5002764673278468   0.5042799224642180 Sn
   0.4998677558151702   -0.0000926512084798   0.4999843548976556 Te
   0.5001564384285667   0.4998051777400066   -0.0012039313696751 Te
   0.2149251613550376   -0.0007744485835018   -0.0010591853906922 Cl
   0.7849992362829835   0.0007151584316055   0.0013135793847960 Cl
   0.0025250540568254   0.2060138814202910   -0.0011403634068068 Cl
   -0.0026308670412739   0.7939496788568549   0.0011186307361940 Cl
   0.0022643597580985   -0.0010650550615130   0.2068966702683794 Cl
   -0.0023004584789171   0.0010431723449536   0.7932654364500311 Cl
   0.2252706688517767   0.5021122425628108   0.5063984006094386 Cl
   0.7746214890354354   0.4978391812574462   0.5033357364915746 Cl
   -0.0025309479647878   0.5008036356542139   0.7236184223236330 Cl
   0.0032503965731584   0.5005743597791241   0.2699224013786486 Br
   -0.0032333915034461   0.7330406630201408   0.5011049983332452 Br
   0.0025126037574821   0.2674288285395511   0.5063609520296201 Br
   0.5007725615326994   0.2394751188368170   0.4984339113684105 Br
   0.4990089369705636   0.7603816117826206   0.5007434791277557 Br
   0.5010256594680833   0.0026989256465003   0.7585767870920138 I
   0.4985828935233753   -0.0029934475314365   0.2406832458667464 I
   0.7714303895918330   -0.0024067173030505   0.5017189044661468 I
   0.2283072014849439   0.0022950409315197   0.4980486228745816 I
   0.4983118527387329   0.5022349786433770   0.2591546180832637 I
   0.5017533440486350   0.4975937070142358   0.7390502468687078 I
   0.5018156052070889   0.7579306972263700   -0.0008279946560747 I
   0.4984306373577614   0.2417263261738374   -0.0005433920144052 I
   0.7723068413260611   0.5016795603774414   -0.0037170916676584 I
   0.2280536661967693   0.4974522822705739   -0.0008758851684262 I
