Random_composition
1.0
  11.2094379239999995  -0.0824907970000000  -0.0240264030000000
  -0.0874453100000000  11.3126120770000007  0.0543788740000000
  -0.0249529150000000  0.0535473970000000  11.3001432590000004
Cs Rb Pt Sn Te Cl Br I
2 6 1 1 2 9 5 10
Direct
   0.7760223755883328   0.2444982750499141   0.2558586576447177 Cs
   0.2212472601878064   0.7572049798224574   0.7463418496866315 Cs
   0.2190059988822195   0.7632022605597234   0.2206432068760969 Rb
   0.7861925085695077   0.2410211164445177   0.7758594488739123 Rb
   0.2306880138245756   0.2468564969199245   0.7564858806579249 Rb
   0.7713012944312555   0.7576346989898882   0.2397467192942273 Rb
   0.7669751834558692   0.7461370357655843   0.7415776394091181 Rb
   0.2348138040151236   0.2390412825587771   0.2507811512073652 Rb
   0.0000664993978900   0.0002561334721892   0.0005219110374397 Pt
   -0.0014585826639142   0.4994444070269164   0.5043914577353578 Sn
   0.4999407883508819   0.0004199697889044   0.5004829418307131 Te
   0.5006027703194270   0.5007360221298546   -0.0012558935605304 Te
   0.2088943274007620   -0.0150205717074276   -0.0107612988740048 Cl
   0.7916092209824472   0.0159033697084565   0.0121728292882246 Cl
   0.0186969002507658   0.2076984859801624   -0.0052304815243609 Cl
   -0.0181818365947092   0.7925737216244653   0.0058100050431199 Cl
   0.0128952695061518   0.0022659334360895   0.2084156416474981 Cl
   -0.0129790479330561   -0.0022501439441458   0.7926501739988095 Cl
   0.2148087559078222   0.5108098355457049   0.5413191388684738 Cl
   0.7813551469946509   0.4871509164982183   0.4694022291368701 Cl
   -0.0372798936542605   0.5095607884886078   0.7227470279931167 Cl
   0.0355712649628906   0.4891623776780332   0.2724703996822067 Br
   -0.0113240974347882   0.7335775631171446   0.4879315840890833 Br
   0.0076180452712094   0.2656778496492782   0.5202487824420147 Br
   0.4993605150120572   0.2377765040459610   0.4483746535148499 Br
   0.4990501050924935   0.7630803241166324   0.5515739745317796 Br
   0.4986583531485895   0.0532379147265215   0.7568033212219586 I
   0.5020507044754988   -0.0501422941923854   0.2424933110354757 I
   0.7647047277958980   -0.0000962707159105   0.5060969766471135 I
   0.2346565231473791   -0.0004497235220833   0.4944134140247062 I
   0.4843649557145516   0.5440361446698909   0.2567032477532792 I
   0.5168908767780067   0.4572980503981275   0.7409004898040864 I
   0.5071832869021560   0.7597744788527995   -0.0460525038205603 I
   0.4951226078992387   0.2413127305400435   0.0430599585855361 I
   0.7657831422966821   0.5025323656386118   0.0130044254154391 I
   0.2350916858617069   0.4980767211390273   -0.0159826684967773 I
