Random_composition
1.0
  11.2207465269999993  -0.0582200480000000  -0.0474963300000000
  -0.0630777940000000  11.3175505829999992  0.0604779580000000
  -0.0484849400000000  0.0594114780000000  11.2997094990000004
Cs Rb Pt Sn Te Cl Br I
2 6 1 1 2 9 5 10
Direct
   0.7781881609238385   0.2431184558809843   0.2575382822175273 Cs
   0.2210155201817883   0.7605114489399323   0.7461646024935713 Cs
   0.2184657419617552   0.7625996290647409   0.2199778545507294 Rb
   0.7850458678029612   0.2389332312935590   0.7785781222476479 Rb
   0.2267780776842887   0.2508536643262788   0.7521104865387291 Rb
   0.7739664894413879   0.7528145823963417   0.2441152915780367 Rb
   0.7650439445754948   0.7419644700107376   0.7411105820324292 Rb
   0.2358253628390149   0.2427966921298870   0.2456750761028216 Rb
   0.0002795226752083   0.0005644750436555   0.0006362232590031 Pt
   -0.0019259835387782   0.4995501318639877   0.5056932438362417 Sn
   0.4994827502435312   0.0004713425853747   0.4993221367502514 Te
   0.5013968856924689   0.5004258756815004   -0.0014106754823359 Te
   0.2090436935156537   -0.0170845656813749   -0.0071371703944931 Cl
   0.7919332311414975   0.0183120637894867   0.0083937065698815 Cl
   0.0210057067984377   0.2075938814051128   -0.0060813209458858 Cl
   -0.0201549531819142   0.7930765000207640   0.0066177866289494 Cl
   0.0115118431162108   0.0029374070762329   0.2086459941405057 Cl
   -0.0109662086549838   -0.0024803362107329   0.7921512629856726 Cl
   0.2143088155876474   0.5008392499250650   0.5464183966545122 Cl
   0.7812004249872961   0.4994998420694785   0.4678691450589523 Cl
   -0.0386678965123174   0.5101968781991210   0.7234254785203826 Cl
   0.0363615341484115   0.4895270145747251   0.2731832570979889 Br
   -0.0016445853323298   0.7341722588348123   0.4901843405521134 Br
   -0.0028142228542130   0.2651626028251312   0.5215319776590120 Br
   0.5027077120449530   0.2372271822626363   0.4461601208655545 Br
   0.4942305526748840   0.7635154103509516   0.5514060591608817 Br
   0.4972256695841896   0.0540406816798931   0.7555838603785079 I
   0.5029178680152263   -0.0519658186907600   0.2419681266907199 I
   0.7639091621551309   -0.0063014739970796   0.5073443686709664 I
   0.2348763778093809   0.0061847684996209   0.4914552647810578 I
   0.4848560895236937   0.5416613545640169   0.2569969000031354 I
   0.5179155139371030   0.4585087845113089   0.7403738487162120 I
   0.5078073537659819   0.7590411082990269   -0.0458088122232607 I
   0.4968193327813119   0.2414654373938750   0.0425430192202327 I
   0.7664106070058896   0.5014994820848687   0.0145545358051777 I
   0.2356431991805741   0.4987657444115935   -0.0172926699229851 I
