Random_composition
1.0
  10.9332041150000006  -0.0055857770000000  0.0127925890000000
  -0.0059147980000000  11.4344833369999996  -0.0006882360000000
  0.0125332400000000  -0.0010180030000000  11.3858931499999994
Cs Rb Pt Sn Te Cl Br I
2 6 1 1 2 9 5 10
Direct
   0.7686772988189541   0.2440306539917217   0.2463517390310096 Cs
   0.2295552840003811   0.7535783602696708   0.7533956203826984 Cs
   0.2320212361836038   0.7560259995083877   0.2462417427477817 Rb
   0.7695746987545256   0.2460841654588110   0.7530594568381080 Rb
   0.2309054778122369   0.2461507351429471   0.7531342001854157 Rb
   0.7676693433555716   0.7557559281765716   0.2461071453177599 Rb
   0.7681720597602212   0.7538676738669604   0.7529617410321997 Rb
   0.2333907046046529   0.2441670728020230   0.2462241948238456 Rb
   -0.0000568516554558   0.0000323430058082   0.0001405905991207 Pt
   0.0000156471553583   0.5001846647850396   0.5040530390824304 Sn
   0.4999194617686250   -0.0000567087938043   0.5001219159309834 Te
   0.5001360916101971   0.4998977574786546   -0.0010516511680965 Te
   0.2145525025402460   -0.0002118304144604   -0.0006029239588671 Cl
   0.7854214826250007   0.0002035793151914   0.0006238040176603 Cl
   0.0014635242104420   0.2061831018667931   -0.0009157665097550 Cl
   -0.0015497849893087   0.7938174238438968   0.0007488353683455 Cl
   0.0012569305821468   -0.0008861272099235   0.2068483587288025 Cl
   -0.0012772134354253   0.0008981762898021   0.7930389683152614 Cl
   0.2249796501326725   0.5008578159985632   0.5045811128292857 Cl
   0.7750373036761028   0.4989549205682535   0.5034755367481309 Cl
   -0.0015977933667774   0.5004386045644827   0.7227974785427614 Cl
   0.0024325878042746   0.5008873323303820   0.2694170381880027 Br
   -0.0023833621826071   0.7329397201466868   0.5013049788609756 Br
   0.0017460084360583   0.2674230219160187   0.5052393903927158 Br
   0.5001565952852868   0.2393901230523013   0.4996153032703988 Br
   0.4997457219121425   0.7605328720776088   0.4999836472623860 Br
   0.5010676642564778   0.0019818144781957   0.7585168152808501 I
   0.4986804796724881   -0.0021801642886107   0.2410894823050116 I
   0.7709594406354313   -0.0024463550068083   0.5017538522281582 I
   0.2289091735932673   0.0023425395721878   0.4981263390166241 I
   0.4982508721882291   0.5020644150792278   0.2594000823007883 I
   0.5017193798428862   0.4978786381383703   0.7391914061816691 I
   0.5015365544713937   0.7575297583743169   -0.0000706656692140 I
   0.4985721164804456   0.2422937892313232   -0.0006061248576418 I
   0.7716974920355326   0.5017451531241913   -0.0038676535244612 I
   0.2286437562581548   0.4976452846970709   -0.0004296938445332 I
