Random_composition
1.0
  11.0028613180000008  0.0014522230000000  0.0108795630000000
  0.0014157000000000  11.2124118809999995  -0.0142274450000000
  0.0108616790000000  -0.0145402110000000  11.1972006450000006
Cs Rb Pt Sn Te Cl Br I
2 6 1 1 2 9 5 10
Direct
   0.7585269025163471   0.2486983552929720   0.2496486389387550 Cs
   0.2407125587890069   0.7505897339933463   0.7503893511510545 Cs
   0.2435190388643124   0.7509744638051471   0.2495592564381674 Rb
   0.7569817762174247   0.2494871420696361   0.7504638168130098 Rb
   0.2430481785831262   0.2495028792857722   0.7504711040677658 Rb
   0.7564538083049733   0.7509561769719211   0.2495493641161982 Rb
   0.7568891352773640   0.7505158418998082   0.7504646532866514 Rb
   0.2436108935931661   0.2490289168382975   0.2495536834379370 Rb
   -0.0000037410476688   0.0000054895299434   0.0001062871730784 Pt
   0.0000046061283304   0.5000289952531171   0.5028162183938168 Sn
   0.4999989245169897   -0.0000031706043069   0.5000312455409419 Te
   0.4999904499247307   0.4999994087102900   -0.0003157899571511 Te
   0.2109637563055887   0.0004664032136911   0.0004038011277976 Cl
   0.7890343547970700   -0.0004675567470185   -0.0004528811504638 Cl
   0.0004824703579921   0.2104650283935034   -0.0005993345715172 Cl
   -0.0004999856360627   0.7895406922234710   0.0003240619253097 Cl
   0.0005253126182067   -0.0005239101591038   0.2081445983524485 Cl
   -0.0005272875119732   0.0005257186923462   0.7918598136625145 Cl
   0.2253567136823451   0.4995125709795911   0.5012275106075356 Cl
   0.7746555116993783   0.5004522362404842   0.5021641052519880 Cl
   -0.0005778382513819   0.4995726033269397   0.7264649608647787 Cl
   0.0008978146135727   0.5007956776605433   0.2653819797769197 Br
   -0.0008278567168574   0.7384850023462382   0.5011489870889523 Br
   0.0007579693240592   0.2615144712266568   0.5026794298711138 Br
   0.4993373959746070   0.2490912354734755   0.5005895256237878 Br
   0.5006554365571655   0.7509111132379870   0.4994254199327305 Br
   0.5012696220667031   0.0011428452765684   0.7649137437900271 I
   0.4986928830760200   -0.0011769583944636   0.2350496144253114 I
   0.7724596154802403   -0.0014672410096889   0.5014007768419032 I
   0.2275373814087293   0.0014519082469838   0.4986054395802816 I
   0.4986121055465527   0.5013457775280620   0.2688715048618214 I
   0.5013896996086320   0.4986531554041394   0.7312613142441501 I
   0.5011989310537770   0.7686236462080096   0.0008772483067523 I
   0.4987959300892027   0.2313705813828064   -0.0009203076600140 I
   0.7733182727437219   0.5013734390866459   -0.0021639428109311 I
   0.2267562562044421   0.4985563794801596   0.0006033806759058 I
